User:   gabrielbirnbaum@Gabriels-MacBook-Pro.local
Date:   Sun Jul 17 15:12:06 2022
Arch:   x86_64
Pid:    60329
Python: 3.9.13
gpaw:   /Users/gabrielbirnbaum/PycharmProjects/nanolithia/venv/lib/python3.9/site-packages/gpaw
_gpaw:  /Users/gabrielbirnbaum/PycharmProjects/nanolithia/venv/lib/python3.9/site-packages/
        _gpaw.cpython-39-darwin.so
ase:    /Users/gabrielbirnbaum/PycharmProjects/nanolithia/venv/lib/python3.9/site-packages/ase (version 3.22.1)
numpy:  /Users/gabrielbirnbaum/PycharmProjects/nanolithia/venv/lib/python3.9/site-packages/numpy (version 1.23.0)
scipy:  /Users/gabrielbirnbaum/PycharmProjects/nanolithia/venv/lib/python3.9/site-packages/scipy (version 1.8.1)
units:  Angstrom and eV
cores: 1
OpenMP: False
OMP_NUM_THREADS: 1

Input parameters:
  kpts: {size: (11, 11, 11)}
  mode: {ecut: 500.0,
         name: pw}
  nbands: -10
  xc: PBE

System changes: positions, numbers, cell, pbc, initial_charges, initial_magmoms

Initialize ...

Li-setup:
  name: Lithium
  id: 830b4218f175192f93f959cfc0aad614
  Z: 3.0
  valence: 1
  core: 2
  charge: 0.0
  file: /Users/gabrielbirnbaum/dft_learning/DIR/gpaw-setups-0.9.20000/Li.PBE.gz
  compensation charges: gauss, rc=0.33, lmax=2
  cutoffs: 1.91(filt), 2.55(core),
  valence states:
                energy  radius
    2s(1.00)    -2.874   1.058
    2p(0.00)    -1.090   1.058
    *s          24.337   1.058

  Using partial waves for Li as LCAO basis

Reference energy: -405.575640

Spin-paired calculation

Convergence criteria:
 Maximum [total energy] change in last 3 cyles: 0.0005 eV / electron
 Maximum integral of absolute [dens]ity change: 0.0001 electrons / valence electron
 Maximum integral of absolute [eigenst]ate change: 4e-08 eV^2 / valence electron
 Maximum number of scf [iter]ations: 333
 (Square brackets indicate name in SCF output, whereas a 'c' in
 the SCF output indicates the quantity has converged.)

Symmetries present (total): 48

  ( 1  0  0)  ( 1  0  0)  ( 1  0  0)  ( 1  0  0)  ( 1  0  0)  ( 1  0  0)
  ( 0  1  0)  ( 0  1  0)  ( 0  0  1)  ( 0  0  1)  ( 0  0 -1)  ( 0  0 -1)
  ( 0  0  1)  ( 0  0 -1)  ( 0  1  0)  ( 0 -1  0)  ( 0  1  0)  ( 0 -1  0)

  ( 1  0  0)  ( 1  0  0)  ( 0  1  0)  ( 0  1  0)  ( 0  1  0)  ( 0  1  0)
  ( 0 -1  0)  ( 0 -1  0)  ( 1  0  0)  ( 1  0  0)  ( 0  0  1)  ( 0  0  1)
  ( 0  0  1)  ( 0  0 -1)  ( 0  0  1)  ( 0  0 -1)  ( 1  0  0)  (-1  0  0)

  ( 0  1  0)  ( 0  1  0)  ( 0  1  0)  ( 0  1  0)  ( 0  0  1)  ( 0  0  1)
  ( 0  0 -1)  ( 0  0 -1)  (-1  0  0)  (-1  0  0)  ( 1  0  0)  ( 1  0  0)
  ( 1  0  0)  (-1  0  0)  ( 0  0  1)  ( 0  0 -1)  ( 0  1  0)  ( 0 -1  0)

  ( 0  0  1)  ( 0  0  1)  ( 0  0  1)  ( 0  0  1)  ( 0  0  1)  ( 0  0  1)
  ( 0  1  0)  ( 0  1  0)  ( 0 -1  0)  ( 0 -1  0)  (-1  0  0)  (-1  0  0)
  ( 1  0  0)  (-1  0  0)  ( 1  0  0)  (-1  0  0)  ( 0  1  0)  ( 0 -1  0)

  ( 0  0 -1)  ( 0  0 -1)  ( 0  0 -1)  ( 0  0 -1)  ( 0  0 -1)  ( 0  0 -1)
  ( 1  0  0)  ( 1  0  0)  ( 0  1  0)  ( 0  1  0)  ( 0 -1  0)  ( 0 -1  0)
  ( 0  1  0)  ( 0 -1  0)  ( 1  0  0)  (-1  0  0)  ( 1  0  0)  (-1  0  0)

  ( 0  0 -1)  ( 0  0 -1)  ( 0 -1  0)  ( 0 -1  0)  ( 0 -1  0)  ( 0 -1  0)
  (-1  0  0)  (-1  0  0)  ( 1  0  0)  ( 1  0  0)  ( 0  0  1)  ( 0  0  1)
  ( 0  1  0)  ( 0 -1  0)  ( 0  0  1)  ( 0  0 -1)  ( 1  0  0)  (-1  0  0)

  ( 0 -1  0)  ( 0 -1  0)  ( 0 -1  0)  ( 0 -1  0)  (-1  0  0)  (-1  0  0)
  ( 0  0 -1)  ( 0  0 -1)  (-1  0  0)  (-1  0  0)  ( 0  1  0)  ( 0  1  0)
  ( 1  0  0)  (-1  0  0)  ( 0  0  1)  ( 0  0 -1)  ( 0  0  1)  ( 0  0 -1)

  (-1  0  0)  (-1  0  0)  (-1  0  0)  (-1  0  0)  (-1  0  0)  (-1  0  0)
  ( 0  0  1)  ( 0  0  1)  ( 0  0 -1)  ( 0  0 -1)  ( 0 -1  0)  ( 0 -1  0)
  ( 0  1  0)  ( 0 -1  0)  ( 0  1  0)  ( 0 -1  0)  ( 0  0  1)  ( 0  0 -1)

1331 k-points: 11 x 11 x 11 Monkhorst-Pack grid
56 k-points in the irreducible part of the Brillouin zone
       k-points in crystal coordinates                weights
   0:     0.00000000    0.00000000    0.00000000          1/1331
   1:     0.09090909    0.00000000    0.00000000          6/1331
   2:     0.09090909    0.09090909    0.00000000         12/1331
   3:     0.09090909    0.09090909    0.09090909          8/1331
   4:     0.18181818    0.00000000    0.00000000          6/1331
   5:     0.18181818    0.09090909    0.00000000         24/1331
   6:     0.18181818    0.09090909    0.09090909         24/1331
   7:     0.18181818    0.18181818    0.00000000         12/1331
   8:     0.18181818    0.18181818    0.09090909         24/1331
   9:     0.18181818    0.18181818    0.18181818          8/1331
          ...
  55:     0.45454545    0.45454545    0.45454545          8/1331

Wave functions: Plane wave expansion
  Cutoff energy: 500.000 eV
  Number of coefficients (min, max): 1045, 1116
  Pulay-stress correction: 0.000000 eV/Ang^3 (de/decut=0.000000)
  Using Numpy's FFT
  ScaLapack parameters: grid=1x1, blocksize=None
  Wavefunction extrapolation:
    Improved wavefunction reuse through dual PAW basis

Occupation numbers: Fermi-Dirac: width=0.1000 eV

Eigensolver
   Davidson(niter=2)

Densities:
  Coarse grid: 20*20*20 grid
  Fine grid: 40*40*40 grid
  Total Charge: 0.000000

Density mixing:
  Method: separate
  Backend: pulay
  Linear mixing parameter: 0.05
  Mixing with 5 old densities
  Damping of long wave oscillations: 50

Hamiltonian:
  XC and Coulomb potentials evaluated on a 40*40*40 grid
  Using the PBE Exchange-Correlation functional
  External potential:
    NoExternalPotential

XC parameters: PBE with 2 nearest neighbor stencil

Total number of cores used: 1

Number of atoms: 2
Number of atomic orbitals: 8
Number of bands in calculation: 11
Number of valence electrons: 2
Bands to converge: occupied

... initialized

Initializing position-dependent things.

Density initialized from atomic densities
Creating initial wave functions:
  8 bands from LCAO basis set
  3 bands from random numbers

 | |   Li   |
 Li-------*

Positions:
   0 Li     0.000000    0.000000    0.000000    ( 0.0000,  0.0000,  0.0000)
   1 Li     1.755000    1.755000    1.755000    ( 0.0000,  0.0000,  0.0000)

Unit cell:
           periodic     x           y           z      points  spacing
  1. axis:    yes    3.510000    0.000000    0.000000    20     0.1755
  2. axis:    yes    0.000000    3.510000    0.000000    20     0.1755
  3. axis:    yes    0.000000    0.000000    3.510000    20     0.1755

  Lengths:   3.510000   3.510000   3.510000
  Angles:   90.000000  90.000000  90.000000

Effective grid spacing dv^(1/3) = 0.1755

     iter     time        total  log10-change:
                         energy  eigst   dens
iter:   1 15:12:09    -3.819203
iter:   2 15:12:11    -3.817849  -2.06  -1.27
iter:   3 15:12:13    -3.971881  -2.24  -1.27
iter:   4 15:12:15    -3.798949  -2.43  -0.95
iter:   5 15:12:18    -3.798800  -4.47  -2.72
iter:   6 15:12:20    -3.798758c -5.91  -2.40
iter:   7 15:12:22    -3.798721c -5.44  -2.76
iter:   8 15:12:25    -3.798721c -6.97  -3.61
iter:   9 15:12:27    -3.798721c -8.32c -4.03c

Converged after 9 iterations.

Dipole moment: (-0.000000, 0.000000, -0.000000) |e|*Ang

Energy contributions relative to reference atoms: (reference = -405.575640)

Kinetic:         +3.061587
Potential:       -2.747785
External:        +0.000000
XC:              -4.083755
Entropy (-ST):   -0.029577
Local:           -0.013979
Free energy:     -3.813509
Extrapolated:    -3.798721

Showing only first 2 kpts
 Kpt  Band  Eigenvalues  Occupancy
  0     0     -3.30261    2.00000
  0     1      5.48328    0.00000
  0     2      5.48328    0.00000

  1     0     -3.22595    2.00000
  1     1      4.53533    0.00000
  1     2      5.58075    0.00000

Fermi level: 0.18141

No gap
Stress tensor:
     0.004919     0.000000     0.000000
     0.000000     0.004919     0.000000
     0.000000     0.000000     0.004919
System changes: cell, positions

[...]

 | |   Li   |
 Li-------*

[...]

     iter     time        total  log10-change:
                         energy  eigst   dens
iter:   1 15:12:30    -3.821949
iter:   2 15:12:32    -3.820419  -2.06  -1.27
iter:   3 15:12:35    -3.967373  -2.07  -1.27
iter:   4 15:12:37    -3.800905  -2.23  -0.99
iter:   5 15:12:39    -3.800656  -4.23  -2.90
iter:   6 15:12:42    -3.800611c -5.71  -2.42
iter:   7 15:12:44    -3.800561c -5.20  -2.80
iter:   8 15:12:47    -3.800561c -6.66  -3.40
iter:   9 15:12:49    -3.800561c -8.03c -3.84
iter:  10 15:12:51    -3.800561c -8.79c -3.82
iter:  11 15:12:54    -3.800561c -10.68c -4.51c

[...]

 | |  Li   |
 Li------*

[...]

No gap
Stress tensor:
    -0.000275     0.000000     0.000000
     0.000000    -0.000275     0.000000
     0.000000     0.000000    -0.000275
System changes: cell, positions

Initialize ...

Li-setup:
  name: Lithium
  id: 830b4218f175192f93f959cfc0aad614
  Z: 3.0
  valence: 1
  core: 2
  charge: 0.0
  file: /Users/gabrielbirnbaum/dft_learning/DIR/gpaw-setups-0.9.20000/Li.PBE.gz
  compensation charges: gauss, rc=0.33, lmax=2
  cutoffs: 1.91(filt), 2.55(core),
  valence states:
                energy  radius
    2s(1.00)    -2.874   1.058
    2p(0.00)    -1.090   1.058
    *s          24.337   1.058

  Using partial waves for Li as LCAO basis

Reference energy: -405.575640

Spin-paired calculation

Convergence criteria:
 Maximum [total energy] change in last 3 cyles: 0.0005 eV / electron
 Maximum integral of absolute [dens]ity change: 0.0001 electrons / valence electron
 Maximum integral of absolute [eigenst]ate change: 4e-08 eV^2 / valence electron
 Maximum number of scf [iter]ations: 333
 (Square brackets indicate name in SCF output, whereas a 'c' in
 the SCF output indicates the quantity has converged.)

Symmetries present (total): 48

  ( 1  0  0)  ( 1  0  0)  ( 1  0  0)  ( 1  0  0)  ( 1  0  0)  ( 1  0  0)
  ( 0  1  0)  ( 0  1  0)  ( 0  0  1)  ( 0  0  1)  ( 0  0 -1)  ( 0  0 -1)
  ( 0  0  1)  ( 0  0 -1)  ( 0  1  0)  ( 0 -1  0)  ( 0  1  0)  ( 0 -1  0)

  ( 1  0  0)  ( 1  0  0)  ( 0  1  0)  ( 0  1  0)  ( 0  1  0)  ( 0  1  0)
  ( 0 -1  0)  ( 0 -1  0)  ( 1  0  0)  ( 1  0  0)  ( 0  0  1)  ( 0  0  1)
  ( 0  0  1)  ( 0  0 -1)  ( 0  0  1)  ( 0  0 -1)  ( 1  0  0)  (-1  0  0)

  ( 0  1  0)  ( 0  1  0)  ( 0  1  0)  ( 0  1  0)  ( 0  0  1)  ( 0  0  1)
  ( 0  0 -1)  ( 0  0 -1)  (-1  0  0)  (-1  0  0)  ( 1  0  0)  ( 1  0  0)
  ( 1  0  0)  (-1  0  0)  ( 0  0  1)  ( 0  0 -1)  ( 0  1  0)  ( 0 -1  0)

  ( 0  0  1)  ( 0  0  1)  ( 0  0  1)  ( 0  0  1)  ( 0  0  1)  ( 0  0  1)
  ( 0  1  0)  ( 0  1  0)  ( 0 -1  0)  ( 0 -1  0)  (-1  0  0)  (-1  0  0)
  ( 1  0  0)  (-1  0  0)  ( 1  0  0)  (-1  0  0)  ( 0  1  0)  ( 0 -1  0)

  ( 0  0 -1)  ( 0  0 -1)  ( 0  0 -1)  ( 0  0 -1)  ( 0  0 -1)  ( 0  0 -1)
  ( 1  0  0)  ( 1  0  0)  ( 0  1  0)  ( 0  1  0)  ( 0 -1  0)  ( 0 -1  0)
  ( 0  1  0)  ( 0 -1  0)  ( 1  0  0)  (-1  0  0)  ( 1  0  0)  (-1  0  0)

  ( 0  0 -1)  ( 0  0 -1)  ( 0 -1  0)  ( 0 -1  0)  ( 0 -1  0)  ( 0 -1  0)
  (-1  0  0)  (-1  0  0)  ( 1  0  0)  ( 1  0  0)  ( 0  0  1)  ( 0  0  1)
  ( 0  1  0)  ( 0 -1  0)  ( 0  0  1)  ( 0  0 -1)  ( 1  0  0)  (-1  0  0)

  ( 0 -1  0)  ( 0 -1  0)  ( 0 -1  0)  ( 0 -1  0)  (-1  0  0)  (-1  0  0)
  ( 0  0 -1)  ( 0  0 -1)  (-1  0  0)  (-1  0  0)  ( 0  1  0)  ( 0  1  0)
  ( 1  0  0)  (-1  0  0)  ( 0  0  1)  ( 0  0 -1)  ( 0  0  1)  ( 0  0 -1)

  (-1  0  0)  (-1  0  0)  (-1  0  0)  (-1  0  0)  (-1  0  0)  (-1  0  0)
  ( 0  0  1)  ( 0  0  1)  ( 0  0 -1)  ( 0  0 -1)  ( 0 -1  0)  ( 0 -1  0)
  ( 0  1  0)  ( 0 -1  0)  ( 0  1  0)  ( 0 -1  0)  ( 0  0  1)  ( 0  0 -1)

1331 k-points: 11 x 11 x 11 Monkhorst-Pack grid
56 k-points in the irreducible part of the Brillouin zone
       k-points in crystal coordinates                weights
   0:     0.00000000    0.00000000    0.00000000          1/1331
   1:     0.09090909    0.00000000    0.00000000          6/1331
   2:     0.09090909    0.09090909    0.00000000         12/1331
   3:     0.09090909    0.09090909    0.09090909          8/1331
   4:     0.18181818    0.00000000    0.00000000          6/1331
   5:     0.18181818    0.09090909    0.00000000         24/1331
   6:     0.18181818    0.09090909    0.09090909         24/1331
   7:     0.18181818    0.18181818    0.00000000         12/1331
   8:     0.18181818    0.18181818    0.09090909         24/1331
   9:     0.18181818    0.18181818    0.18181818          8/1331
          ...
  55:     0.45454545    0.45454545    0.45454545          8/1331

Wave functions: Plane wave expansion
  Cutoff energy: 500.000 eV
  Number of coefficients (min, max): 1021, 1050
  Pulay-stress correction: 0.000000 eV/Ang^3 (de/decut=0.000000)
  Using Numpy's FFT
  ScaLapack parameters: grid=1x1, blocksize=None
  Wavefunction extrapolation:
    Improved wavefunction reuse through dual PAW basis

Occupation numbers: Fermi-Dirac: width=0.1000 eV

Eigensolver
   Davidson(niter=2)

Densities:
  Coarse grid: 18*18*18 grid
  Fine grid: 36*36*36 grid
  Total Charge: 0.000000

Density mixing:
  Method: separate
  Backend: pulay
  Linear mixing parameter: 0.05
  Mixing with 5 old densities
  Damping of long wave oscillations: 50

Hamiltonian:
  XC and Coulomb potentials evaluated on a 36*36*36 grid
  Using the PBE Exchange-Correlation functional
  External potential:
    NoExternalPotential

XC parameters: PBE with 2 nearest neighbor stencil

Total number of cores used: 1

Number of atoms: 2
Number of atomic orbitals: 8
Number of bands in calculation: 11
Number of valence electrons: 2
Bands to converge: occupied

... initialized

Initializing position-dependent things.

Density initialized from atomic densities
Creating initial wave functions:
  8 bands from LCAO basis set
  3 bands from random numbers

 | |  Li   |
 Li------*

Positions:
   0 Li     0.000000    0.000000    0.000000    ( 0.0000,  0.0000,  0.0000)
   1 Li     1.719100    1.719100    1.719100    ( 0.0000,  0.0000,  0.0000)

Unit cell:
           periodic     x           y           z      points  spacing
  1. axis:    yes    3.438200    0.000000    0.000000    18     0.1910
  2. axis:    yes    0.000000    3.438200    0.000000    18     0.1910
  3. axis:    yes    0.000000    0.000000    3.438200    18     0.1910

  Lengths:   3.438200   3.438200   3.438200
  Angles:   90.000000  90.000000  90.000000

Effective grid spacing dv^(1/3) = 0.1910

     iter     time        total  log10-change:
                         energy  eigst   dens
iter:   1 15:13:13    -3.832257
iter:   2 15:13:15    -3.829997  -1.99  -1.25
iter:   3 15:13:17    -3.993221  -2.56  -1.25
iter:   4 15:13:19    -3.805890  -2.99  -0.93
iter:   5 15:13:21    -3.805751  -4.71  -2.55
iter:   6 15:13:23    -3.805646c -4.90  -2.39
iter:   7 15:13:25    -3.805644c -6.12  -3.06
iter:   8 15:13:27    -3.805644c -7.59c -4.13c

Converged after 8 iterations.

Dipole moment: (-0.000000, -0.000000, -0.000000) |e|*Ang

Energy contributions relative to reference atoms: (reference = -405.575640)

Kinetic:         +3.814969
Potential:       -3.247583
External:        +0.000000
XC:              -4.342785
Entropy (-ST):   -0.029101
Local:           -0.015694
Free energy:     -3.820195
Extrapolated:    -3.805644

Showing only first 2 kpts
 Kpt  Band  Eigenvalues  Occupancy
  0     0     -3.23212    2.00000
  0     1      5.85624    0.00000
  0     2      5.85624    0.00000

  1     0     -3.15369    2.00000
  1     1      4.86224    0.00000
  1     2      5.95802    0.00000

Fermi level: 0.33439

No gap
Stress tensor:
     0.000013     0.000000     0.000000
     0.000000     0.000013     0.000000
     0.000000     0.000000     0.000013
Timing:                              incl.     excl.
Hamiltonian:                         0.179     0.002   0.0% |
 Atomic:                             0.119     0.001   0.0% |
  XC Correction:                     0.118     0.118   0.1% |
 Calculate atomic Hamiltonians:      0.005     0.005   0.0% |
 Communicate:                        0.000     0.000   0.0% |
 Initialize Hamiltonian:             0.000     0.000   0.0% |
 Poisson:                            0.001     0.001   0.0% |
 XC 3D grid:                         0.050     0.050   0.0% |
LCAO initialization:                 2.569     0.053   0.0% |
 LCAO eigensolver:                   0.321     0.004   0.0% |
  Calculate projections:             0.003     0.003   0.0% |
  DenseAtomicCorrection:             0.011     0.011   0.0% |
  Distribute overlap matrix:         0.003     0.003   0.0% |
  Orbital Layouts:                   0.018     0.018   0.0% |
  Potential matrix:                  0.252     0.252   0.2% |
  Sum over cells:                    0.030     0.030   0.0% |
 LCAO to grid:                       1.482     1.482   0.9% |
 Set positions (LCAO WFS):           0.713     0.120   0.1% |
  Basic WFS set positions:           0.008     0.008   0.0% |
  Basis functions set positions:     0.000     0.000   0.0% |
  P tci:                             0.206     0.206   0.1% |
  ST tci:                            0.342     0.342   0.2% |
  mktci:                             0.037     0.037   0.0% |
PWDescriptor:                        0.043     0.043   0.0% |
SCF-cycle:                          76.324     0.245   0.2% |
 Davidson:                          67.696     3.046   1.9% ||
  Apply H:                          13.908    13.716   8.5% |--|
   HMM T:                            0.192     0.192   0.1% |
  Subspace diag:                    16.176     0.092   0.1% |
   calc_h_matrix:                   15.617     0.369   0.2% |
    Apply H:                        15.248    15.045   9.3% |---|
     HMM T:                          0.203     0.203   0.1% |
   diagonalize:                      0.212     0.212   0.1% |
   rotate_psi:                       0.256     0.256   0.2% |
  calc. matrices:                   33.360     2.941   1.8% ||
   Apply H:                         30.419    30.038  18.6% |------|
    HMM T:                           0.382     0.382   0.2% |
  diagonalize:                       0.792     0.792   0.5% |
  rotate_psi:                        0.414     0.414   0.3% |
 Density:                            6.787     0.000   0.0% |
  Atomic density matrices:           0.056     0.056   0.0% |
  Mix:                               0.134     0.134   0.1% |
  Multipole moments:                 0.002     0.002   0.0% |
  Pseudo density:                    6.594     6.371   3.9% |-|
   Symmetrize density:               0.223     0.223   0.1% |
 Hamiltonian:                        1.502     0.022   0.0% |
  Atomic:                            1.002     0.012   0.0% |
   XC Correction:                    0.990     0.990   0.6% |
  Calculate atomic Hamiltonians:     0.045     0.045   0.0% |
  Communicate:                       0.000     0.000   0.0% |
  Poisson:                           0.014     0.014   0.0% |
  XC 3D grid:                        0.420     0.420   0.3% |
 Orthonormalize:                     0.094     0.010   0.0% |
  calc_s_matrix:                     0.028     0.028   0.0% |
  inverse-cholesky:                  0.010     0.010   0.0% |
  projections:                       0.033     0.033   0.0% |
  rotate_psi_s:                      0.013     0.013   0.0% |
Set symmetry:                        0.242     0.242   0.1% |
Stress:                              1.763     0.000   0.0% |
 Stress tensor:                      1.763     1.763   1.1% |
Other:                              80.616    80.616  49.8% |-------------------|
Total:                                       161.736 100.0%