User:   gabrielbirnbaum@Gabriels-MacBook-Pro.local
Date:   Sun Jul 17 15:11:09 2022
Arch:   x86_64
Pid:    60329
Python: 3.9.13
gpaw:   /Users/gabrielbirnbaum/PycharmProjects/nanolithia/venv/lib/python3.9/site-packages/gpaw
_gpaw:  /Users/gabrielbirnbaum/PycharmProjects/nanolithia/venv/lib/python3.9/site-packages/
        _gpaw.cpython-39-darwin.so
ase:    /Users/gabrielbirnbaum/PycharmProjects/nanolithia/venv/lib/python3.9/site-packages/ase (version 3.22.1)
numpy:  /Users/gabrielbirnbaum/PycharmProjects/nanolithia/venv/lib/python3.9/site-packages/numpy (version 1.23.0)
scipy:  /Users/gabrielbirnbaum/PycharmProjects/nanolithia/venv/lib/python3.9/site-packages/scipy (version 1.8.1)
units:  Angstrom and eV
cores: 1
OpenMP: False
OMP_NUM_THREADS: 1

Input parameters:
  kpts: {size: (10, 10, 10)}
  mode: {ecut: 500.0,
         name: pw}
  nbands: -10
  xc: PBE

System changes: positions, numbers, cell, pbc, initial_charges, initial_magmoms

Initialize ...

Li-setup:
  name: Lithium
  id: 830b4218f175192f93f959cfc0aad614
  Z: 3.0
  valence: 1
  core: 2
  charge: 0.0
  file: /Users/gabrielbirnbaum/dft_learning/DIR/gpaw-setups-0.9.20000/Li.PBE.gz
  compensation charges: gauss, rc=0.33, lmax=2
  cutoffs: 1.91(filt), 2.55(core),
  valence states:
                energy  radius
    2s(1.00)    -2.874   1.058
    2p(0.00)    -1.090   1.058
    *s          24.337   1.058

  Using partial waves for Li as LCAO basis

Reference energy: -405.575640

Spin-paired calculation

Convergence criteria:
 Maximum [total energy] change in last 3 cyles: 0.0005 eV / electron
 Maximum integral of absolute [dens]ity change: 0.0001 electrons / valence electron
 Maximum integral of absolute [eigenst]ate change: 4e-08 eV^2 / valence electron
 Maximum number of scf [iter]ations: 333
 (Square brackets indicate name in SCF output, whereas a 'c' in
 the SCF output indicates the quantity has converged.)

Symmetries present (total): 48

  ( 1  0  0)  ( 1  0  0)  ( 1  0  0)  ( 1  0  0)  ( 1  0  0)  ( 1  0  0)
  ( 0  1  0)  ( 0  1  0)  ( 0  0  1)  ( 0  0  1)  ( 0  0 -1)  ( 0  0 -1)
  ( 0  0  1)  ( 0  0 -1)  ( 0  1  0)  ( 0 -1  0)  ( 0  1  0)  ( 0 -1  0)

  ( 1  0  0)  ( 1  0  0)  ( 0  1  0)  ( 0  1  0)  ( 0  1  0)  ( 0  1  0)
  ( 0 -1  0)  ( 0 -1  0)  ( 1  0  0)  ( 1  0  0)  ( 0  0  1)  ( 0  0  1)
  ( 0  0  1)  ( 0  0 -1)  ( 0  0  1)  ( 0  0 -1)  ( 1  0  0)  (-1  0  0)

  ( 0  1  0)  ( 0  1  0)  ( 0  1  0)  ( 0  1  0)  ( 0  0  1)  ( 0  0  1)
  ( 0  0 -1)  ( 0  0 -1)  (-1  0  0)  (-1  0  0)  ( 1  0  0)  ( 1  0  0)
  ( 1  0  0)  (-1  0  0)  ( 0  0  1)  ( 0  0 -1)  ( 0  1  0)  ( 0 -1  0)

  ( 0  0  1)  ( 0  0  1)  ( 0  0  1)  ( 0  0  1)  ( 0  0  1)  ( 0  0  1)
  ( 0  1  0)  ( 0  1  0)  ( 0 -1  0)  ( 0 -1  0)  (-1  0  0)  (-1  0  0)
  ( 1  0  0)  (-1  0  0)  ( 1  0  0)  (-1  0  0)  ( 0  1  0)  ( 0 -1  0)

  ( 0  0 -1)  ( 0  0 -1)  ( 0  0 -1)  ( 0  0 -1)  ( 0  0 -1)  ( 0  0 -1)
  ( 1  0  0)  ( 1  0  0)  ( 0  1  0)  ( 0  1  0)  ( 0 -1  0)  ( 0 -1  0)
  ( 0  1  0)  ( 0 -1  0)  ( 1  0  0)  (-1  0  0)  ( 1  0  0)  (-1  0  0)

  ( 0  0 -1)  ( 0  0 -1)  ( 0 -1  0)  ( 0 -1  0)  ( 0 -1  0)  ( 0 -1  0)
  (-1  0  0)  (-1  0  0)  ( 1  0  0)  ( 1  0  0)  ( 0  0  1)  ( 0  0  1)
  ( 0  1  0)  ( 0 -1  0)  ( 0  0  1)  ( 0  0 -1)  ( 1  0  0)  (-1  0  0)

  ( 0 -1  0)  ( 0 -1  0)  ( 0 -1  0)  ( 0 -1  0)  (-1  0  0)  (-1  0  0)
  ( 0  0 -1)  ( 0  0 -1)  (-1  0  0)  (-1  0  0)  ( 0  1  0)  ( 0  1  0)
  ( 1  0  0)  (-1  0  0)  ( 0  0  1)  ( 0  0 -1)  ( 0  0  1)  ( 0  0 -1)

  (-1  0  0)  (-1  0  0)  (-1  0  0)  (-1  0  0)  (-1  0  0)  (-1  0  0)
  ( 0  0  1)  ( 0  0  1)  ( 0  0 -1)  ( 0  0 -1)  ( 0 -1  0)  ( 0 -1  0)
  ( 0  1  0)  ( 0 -1  0)  ( 0  1  0)  ( 0 -1  0)  ( 0  0  1)  ( 0  0 -1)

1000 k-points: 10 x 10 x 10 Monkhorst-Pack grid
35 k-points in the irreducible part of the Brillouin zone
       k-points in crystal coordinates                weights
   0:     0.05000000    0.05000000    0.05000000          8/1000
   1:     0.15000000    0.05000000    0.05000000         24/1000
   2:     0.15000000    0.15000000    0.05000000         24/1000
   3:     0.15000000    0.15000000    0.15000000          8/1000
   4:     0.25000000    0.05000000    0.05000000         24/1000
   5:     0.25000000    0.15000000    0.05000000         48/1000
   6:     0.25000000    0.15000000    0.15000000         24/1000
   7:     0.25000000    0.25000000    0.05000000         24/1000
   8:     0.25000000    0.25000000    0.15000000         24/1000
   9:     0.25000000    0.25000000    0.25000000          8/1000
          ...
  34:     0.45000000    0.45000000    0.45000000          8/1000

Wave functions: Plane wave expansion
  Cutoff energy: 500.000 eV
  Number of coefficients (min, max): 1082, 1110
  Pulay-stress correction: 0.000000 eV/Ang^3 (de/decut=0.000000)
  Using Numpy's FFT
  ScaLapack parameters: grid=1x1, blocksize=None
  Wavefunction extrapolation:
    Improved wavefunction reuse through dual PAW basis

Occupation numbers: Fermi-Dirac: width=0.1000 eV

Eigensolver
   Davidson(niter=2)

Densities:
  Coarse grid: 20*20*20 grid
  Fine grid: 40*40*40 grid
  Total Charge: 0.000000

Density mixing:
  Method: separate
  Backend: pulay
  Linear mixing parameter: 0.05
  Mixing with 5 old densities
  Damping of long wave oscillations: 50

Hamiltonian:
  XC and Coulomb potentials evaluated on a 40*40*40 grid
  Using the PBE Exchange-Correlation functional
  External potential:
    NoExternalPotential

XC parameters: PBE with 2 nearest neighbor stencil

Total number of cores used: 1

Number of atoms: 2
Number of atomic orbitals: 8
Number of bands in calculation: 11
Number of valence electrons: 2
Bands to converge: occupied

... initialized

Initializing position-dependent things.

Density initialized from atomic densities
Creating initial wave functions:
  8 bands from LCAO basis set
  3 bands from random numbers

 | |   Li   |
 Li-------*

Positions:
   0 Li     0.000000    0.000000    0.000000    ( 0.0000,  0.0000,  0.0000)
   1 Li     1.755000    1.755000    1.755000    ( 0.0000,  0.0000,  0.0000)

Unit cell:
           periodic     x           y           z      points  spacing
  1. axis:    yes    3.510000    0.000000    0.000000    20     0.1755
  2. axis:    yes    0.000000    3.510000    0.000000    20     0.1755
  3. axis:    yes    0.000000    0.000000    3.510000    20     0.1755

  Lengths:   3.510000   3.510000   3.510000
  Angles:   90.000000  90.000000  90.000000

Effective grid spacing dv^(1/3) = 0.1755

     iter     time        total  log10-change:
                         energy  eigst   dens
iter:   1 15:11:11    -3.816631
iter:   2 15:11:12    -3.815252  -2.06  -1.27
iter:   3 15:11:14    -3.965522  -2.11  -1.27
iter:   4 15:11:15    -3.796423  -2.26  -0.98
iter:   5 15:11:17    -3.796195  -4.29  -2.94
iter:   6 15:11:18    -3.796153c -5.76  -2.42
iter:   7 15:11:20    -3.796107c -5.28  -2.78
iter:   8 15:11:21    -3.796107c -6.75  -3.43
iter:   9 15:11:23    -3.796107c -8.09c -3.86
iter:  10 15:11:24    -3.796107c -8.83c -3.85
iter:  11 15:11:26    -3.796107c -10.65c -4.53c

Converged after 11 iterations.

Dipole moment: (-0.000000, -0.000000, -0.000000) |e|*Ang

Energy contributions relative to reference atoms: (reference = -405.575640)

Kinetic:         +3.066240
Potential:       -2.748286
External:        +0.000000
XC:              -4.083832
Entropy (-ST):   -0.032347
Local:           -0.014055
Free energy:     -3.812280
Extrapolated:    -3.796107

Showing only first 2 kpts
 Kpt  Band  Eigenvalues  Occupancy
  0     0     -3.23310    2.00000
  0     1      5.03989    0.00000
  0     2      5.03989    0.00000

  1     0     -3.04743    2.00000
  1     1      3.60479    0.00000
  1     2      5.27737    0.00000

Fermi level: 0.17919

No gap
Stress tensor:
     0.004832    -0.000000     0.000000
    -0.000000     0.004832     0.000000
     0.000000     0.000000     0.004832
System changes: cell, positions

[...]

 | |   Li   |
 Li-------*

[...]

     iter     time        total  log10-change:
                         energy  eigst   dens
iter:   1 15:11:28    -3.819224
iter:   2 15:11:30    -3.817727  -2.06  -1.27
iter:   3 15:11:31    -3.972395  -2.13  -1.27
iter:   4 15:11:32    -3.798160  -2.30  -0.97
iter:   5 15:11:34    -3.797960  -4.33  -2.89
iter:   6 15:11:35    -3.797919c -5.84  -2.41
iter:   7 15:11:37    -3.797871c -5.26  -2.77
iter:   8 15:11:38    -3.797871c -6.74  -3.48
iter:   9 15:11:40    -3.797871c -8.17c -3.95
iter:  10 15:11:41    -3.797871c -8.89c -3.89
iter:  11 15:11:43    -3.797871c -10.68c -4.53c

[...]

 | |  Li   |
 Li------*

[...]

     iter     time        total  log10-change:
                         energy  eigst   dens
iter:   1 15:11:45    -3.829518
iter:   2 15:11:46    -3.827247  -1.97  -1.25
iter:   3 15:11:47    -3.989434  -2.61  -1.25
iter:   4 15:11:49    -3.802962  -3.02  -0.93
iter:   5 15:11:50    -3.802814  -4.81  -2.55
iter:   6 15:11:51    -3.802710c -4.88  -2.38
iter:   7 15:11:52    -3.802710c -6.31  -3.26
iter:   8 15:11:54    -3.802710c -7.79c -4.19c

[...]

No gap
Stress tensor:
    -0.000256    -0.000000     0.000000
    -0.000000    -0.000256     0.000000
     0.000000     0.000000    -0.000256
System changes: cell, positions

Initialize ...

Li-setup:
  name: Lithium
  id: 830b4218f175192f93f959cfc0aad614
  Z: 3.0
  valence: 1
  core: 2
  charge: 0.0
  file: /Users/gabrielbirnbaum/dft_learning/DIR/gpaw-setups-0.9.20000/Li.PBE.gz
  compensation charges: gauss, rc=0.33, lmax=2
  cutoffs: 1.91(filt), 2.55(core),
  valence states:
                energy  radius
    2s(1.00)    -2.874   1.058
    2p(0.00)    -1.090   1.058
    *s          24.337   1.058

  Using partial waves for Li as LCAO basis

Reference energy: -405.575640

Spin-paired calculation

Convergence criteria:
 Maximum [total energy] change in last 3 cyles: 0.0005 eV / electron
 Maximum integral of absolute [dens]ity change: 0.0001 electrons / valence electron
 Maximum integral of absolute [eigenst]ate change: 4e-08 eV^2 / valence electron
 Maximum number of scf [iter]ations: 333
 (Square brackets indicate name in SCF output, whereas a 'c' in
 the SCF output indicates the quantity has converged.)

Symmetries present (total): 48

  ( 1  0  0)  ( 1  0  0)  ( 1  0  0)  ( 1  0  0)  ( 1  0  0)  ( 1  0  0)
  ( 0  1  0)  ( 0  1  0)  ( 0  0  1)  ( 0  0  1)  ( 0  0 -1)  ( 0  0 -1)
  ( 0  0  1)  ( 0  0 -1)  ( 0  1  0)  ( 0 -1  0)  ( 0  1  0)  ( 0 -1  0)

  ( 1  0  0)  ( 1  0  0)  ( 0  1  0)  ( 0  1  0)  ( 0  1  0)  ( 0  1  0)
  ( 0 -1  0)  ( 0 -1  0)  ( 1  0  0)  ( 1  0  0)  ( 0  0  1)  ( 0  0  1)
  ( 0  0  1)  ( 0  0 -1)  ( 0  0  1)  ( 0  0 -1)  ( 1  0  0)  (-1  0  0)

  ( 0  1  0)  ( 0  1  0)  ( 0  1  0)  ( 0  1  0)  ( 0  0  1)  ( 0  0  1)
  ( 0  0 -1)  ( 0  0 -1)  (-1  0  0)  (-1  0  0)  ( 1  0  0)  ( 1  0  0)
  ( 1  0  0)  (-1  0  0)  ( 0  0  1)  ( 0  0 -1)  ( 0  1  0)  ( 0 -1  0)

  ( 0  0  1)  ( 0  0  1)  ( 0  0  1)  ( 0  0  1)  ( 0  0  1)  ( 0  0  1)
  ( 0  1  0)  ( 0  1  0)  ( 0 -1  0)  ( 0 -1  0)  (-1  0  0)  (-1  0  0)
  ( 1  0  0)  (-1  0  0)  ( 1  0  0)  (-1  0  0)  ( 0  1  0)  ( 0 -1  0)

  ( 0  0 -1)  ( 0  0 -1)  ( 0  0 -1)  ( 0  0 -1)  ( 0  0 -1)  ( 0  0 -1)
  ( 1  0  0)  ( 1  0  0)  ( 0  1  0)  ( 0  1  0)  ( 0 -1  0)  ( 0 -1  0)
  ( 0  1  0)  ( 0 -1  0)  ( 1  0  0)  (-1  0  0)  ( 1  0  0)  (-1  0  0)

  ( 0  0 -1)  ( 0  0 -1)  ( 0 -1  0)  ( 0 -1  0)  ( 0 -1  0)  ( 0 -1  0)
  (-1  0  0)  (-1  0  0)  ( 1  0  0)  ( 1  0  0)  ( 0  0  1)  ( 0  0  1)
  ( 0  1  0)  ( 0 -1  0)  ( 0  0  1)  ( 0  0 -1)  ( 1  0  0)  (-1  0  0)

  ( 0 -1  0)  ( 0 -1  0)  ( 0 -1  0)  ( 0 -1  0)  (-1  0  0)  (-1  0  0)
  ( 0  0 -1)  ( 0  0 -1)  (-1  0  0)  (-1  0  0)  ( 0  1  0)  ( 0  1  0)
  ( 1  0  0)  (-1  0  0)  ( 0  0  1)  ( 0  0 -1)  ( 0  0  1)  ( 0  0 -1)

  (-1  0  0)  (-1  0  0)  (-1  0  0)  (-1  0  0)  (-1  0  0)  (-1  0  0)
  ( 0  0  1)  ( 0  0  1)  ( 0  0 -1)  ( 0  0 -1)  ( 0 -1  0)  ( 0 -1  0)
  ( 0  1  0)  ( 0 -1  0)  ( 0  1  0)  ( 0 -1  0)  ( 0  0  1)  ( 0  0 -1)

1000 k-points: 10 x 10 x 10 Monkhorst-Pack grid
35 k-points in the irreducible part of the Brillouin zone
       k-points in crystal coordinates                weights
   0:     0.05000000    0.05000000    0.05000000          8/1000
   1:     0.15000000    0.05000000    0.05000000         24/1000
   2:     0.15000000    0.15000000    0.05000000         24/1000
   3:     0.15000000    0.15000000    0.15000000          8/1000
   4:     0.25000000    0.05000000    0.05000000         24/1000
   5:     0.25000000    0.15000000    0.05000000         48/1000
   6:     0.25000000    0.15000000    0.15000000         24/1000
   7:     0.25000000    0.25000000    0.05000000         24/1000
   8:     0.25000000    0.25000000    0.15000000         24/1000
   9:     0.25000000    0.25000000    0.25000000          8/1000
          ...
  34:     0.45000000    0.45000000    0.45000000          8/1000

Wave functions: Plane wave expansion
  Cutoff energy: 500.000 eV
  Number of coefficients (min, max): 1023, 1046
  Pulay-stress correction: 0.000000 eV/Ang^3 (de/decut=0.000000)
  Using Numpy's FFT
  ScaLapack parameters: grid=1x1, blocksize=None
  Wavefunction extrapolation:
    Improved wavefunction reuse through dual PAW basis

Occupation numbers: Fermi-Dirac: width=0.1000 eV

Eigensolver
   Davidson(niter=2)

Densities:
  Coarse grid: 18*18*18 grid
  Fine grid: 36*36*36 grid
  Total Charge: 0.000000

Density mixing:
  Method: separate
  Backend: pulay
  Linear mixing parameter: 0.05
  Mixing with 5 old densities
  Damping of long wave oscillations: 50

Hamiltonian:
  XC and Coulomb potentials evaluated on a 36*36*36 grid
  Using the PBE Exchange-Correlation functional
  External potential:
    NoExternalPotential

XC parameters: PBE with 2 nearest neighbor stencil

Total number of cores used: 1

Number of atoms: 2
Number of atomic orbitals: 8
Number of bands in calculation: 11
Number of valence electrons: 2
Bands to converge: occupied

... initialized

Initializing position-dependent things.

Density initialized from atomic densities
Creating initial wave functions:
  8 bands from LCAO basis set
  3 bands from random numbers

 | |  Li   |
 Li------*

Positions:
   0 Li     0.000000    0.000000    0.000000    ( 0.0000,  0.0000,  0.0000)
   1 Li     1.719742    1.719742    1.719742    ( 0.0000,  0.0000,  0.0000)

Unit cell:
           periodic     x           y           z      points  spacing
  1. axis:    yes    3.439485    0.000000    0.000000    18     0.1911
  2. axis:    yes    0.000000    3.439485    0.000000    18     0.1911
  3. axis:    yes    0.000000    0.000000    3.439485    18     0.1911

  Lengths:   3.439485   3.439485   3.439485
  Angles:   90.000000  90.000000  90.000000

Effective grid spacing dv^(1/3) = 0.1911

     iter     time        total  log10-change:
                         energy  eigst   dens
iter:   1 15:11:56    -3.829228
iter:   2 15:11:57    -3.826983  -1.99  -1.26
iter:   3 15:11:59    -3.989607  -2.57  -1.25
iter:   4 15:12:00    -3.802980  -2.99  -0.93
iter:   5 15:12:01    -3.802824  -4.66  -2.58
iter:   6 15:12:03    -3.802718c -4.87  -2.39
iter:   7 15:12:04    -3.802718c -6.14  -3.11
iter:   8 15:12:05    -3.802718c -7.62c -4.05c

Converged after 8 iterations.

Dipole moment: (-0.000000, -0.000000, -0.000000) |e|*Ang

Energy contributions relative to reference atoms: (reference = -405.575640)

Kinetic:         +3.809509
Potential:       -3.242059
External:        +0.000000
XC:              -4.338528
Entropy (-ST):   -0.032012
Local:           -0.015634
Free energy:     -3.818724
Extrapolated:    -3.802718

Showing only first 2 kpts
 Kpt  Band  Eigenvalues  Occupancy
  0     0     -3.16238    2.00000
  0     1      5.38060    0.00000
  0     2      5.38060    0.00000

  1     0     -2.97244    2.00000
  1     1      3.88595    0.00000
  1     2      5.62833    0.00000

Fermi level: 0.33049

No gap
Stress tensor:
     0.000011     0.000000     0.000000
     0.000000     0.000011     0.000000
     0.000000     0.000000     0.000011
Timing:                              incl.     excl.
Hamiltonian:                         0.202     0.003   0.0% |
 Atomic:                             0.132     0.002   0.0% |
  XC Correction:                     0.130     0.130   0.1% |
 Calculate atomic Hamiltonians:      0.006     0.006   0.0% |
 Communicate:                        0.000     0.000   0.0% |
 Initialize Hamiltonian:             0.000     0.000   0.0% |
 Poisson:                            0.001     0.001   0.0% |
 XC 3D grid:                         0.059     0.059   0.0% |
LCAO initialization:                 1.908     0.069   0.0% |
 LCAO eigensolver:                   0.307     0.003   0.0% |
  Calculate projections:             0.002     0.002   0.0% |
  DenseAtomicCorrection:             0.007     0.007   0.0% |
  Distribute overlap matrix:         0.002     0.002   0.0% |
  Orbital Layouts:                   0.012     0.012   0.0% |
  Potential matrix:                  0.262     0.262   0.2% |
  Sum over cells:                    0.020     0.020   0.0% |
 LCAO to grid:                       1.004     1.004   0.7% |
 Set positions (LCAO WFS):           0.529     0.087   0.1% |
  Basic WFS set positions:           0.008     0.008   0.0% |
  Basis functions set positions:     0.000     0.000   0.0% |
  P tci:                             0.144     0.144   0.1% |
  ST tci:                            0.250     0.250   0.2% |
  mktci:                             0.039     0.039   0.0% |
PWDescriptor:                        0.044     0.044   0.0% |
SCF-cycle:                          52.937     0.180   0.1% |
 Davidson:                          46.421     2.062   1.5% ||
  Apply H:                           9.397     9.269   6.7% |--|
   HMM T:                            0.128     0.128   0.1% |
  Subspace diag:                    11.052     0.061   0.0% |
   calc_h_matrix:                   10.671     0.252   0.2% |
    Apply H:                        10.419    10.283   7.4% |--|
     HMM T:                          0.136     0.136   0.1% |
   diagonalize:                      0.144     0.144   0.1% |
   rotate_psi:                       0.175     0.175   0.1% |
  calc. matrices:                   23.094     2.209   1.6% ||
   Apply H:                         20.885    20.628  14.9% |-----|
    HMM T:                           0.257     0.257   0.2% |
  diagonalize:                       0.525     0.525   0.4% |
  rotate_psi:                        0.291     0.291   0.2% |
 Density:                            4.658     0.000   0.0% |
  Atomic density matrices:           0.045     0.045   0.0% |
  Mix:                               0.138     0.138   0.1% |
  Multipole moments:                 0.002     0.002   0.0% |
  Pseudo density:                    4.471     4.233   3.1% ||
   Symmetrize density:               0.239     0.239   0.2% |
 Hamiltonian:                        1.612     0.022   0.0% |
  Atomic:                            1.066     0.012   0.0% |
   XC Correction:                    1.054     1.054   0.8% |
  Calculate atomic Hamiltonians:     0.049     0.049   0.0% |
  Communicate:                       0.000     0.000   0.0% |
  Poisson:                           0.016     0.016   0.0% |
  XC 3D grid:                        0.459     0.459   0.3% |
 Orthonormalize:                     0.066     0.007   0.0% |
  calc_s_matrix:                     0.022     0.022   0.0% |
  inverse-cholesky:                  0.007     0.007   0.0% |
  projections:                       0.022     0.022   0.0% |
  rotate_psi_s:                      0.008     0.008   0.0% |
Set symmetry:                        0.214     0.214   0.2% |
Stress:                              1.216     0.000   0.0% |
 Stress tensor:                      1.216     1.216   0.9% |
Other:                              82.225    82.225  59.3% |-----------------------|
Total:                                       138.746 100.0%