User:   gabrielbirnbaum@Gabriels-MacBook-Pro.local
Date:   Tue Jul 19 12:05:49 2022
Arch:   x86_64
Pid:    15481
Python: 3.9.13
gpaw:   /Users/gabrielbirnbaum/PycharmProjects/nanolithia/venv/lib/python3.9/site-packages/gpaw
_gpaw:  /Users/gabrielbirnbaum/PycharmProjects/nanolithia/venv/lib/python3.9/site-packages/
        _gpaw.cpython-39-darwin.so
ase:    /Users/gabrielbirnbaum/PycharmProjects/nanolithia/venv/lib/python3.9/site-packages/ase (version 3.22.1)
numpy:  /Users/gabrielbirnbaum/PycharmProjects/nanolithia/venv/lib/python3.9/site-packages/numpy (version 1.23.0)
scipy:  /Users/gabrielbirnbaum/PycharmProjects/nanolithia/venv/lib/python3.9/site-packages/scipy (version 1.8.1)
units:  Angstrom and eV
cores: 1
OpenMP: False
OMP_NUM_THREADS: 1

Input parameters:
  kpts: {size: (8, 8, 8)}
  mode: {ecut: 500.0,
         name: pw}
  nbands: 20
  xc: PBE

System changes: positions, numbers, cell, pbc, initial_charges, initial_magmoms

Initialize ...

Li-setup:
  name: Lithium
  id: 830b4218f175192f93f959cfc0aad614
  Z: 3.0
  valence: 1
  core: 2
  charge: 0.0
  file: /Users/gabrielbirnbaum/dft_learning/DIR/gpaw-setups-0.9.20000/Li.PBE.gz
  compensation charges: gauss, rc=0.33, lmax=2
  cutoffs: 1.91(filt), 2.55(core),
  valence states:
                energy  radius
    2s(1.00)    -2.874   1.058
    2p(0.00)    -1.090   1.058
    *s          24.337   1.058

  Using partial waves for Li as LCAO basis

O-setup:
  name: Oxygen
  id: 32ecd46bf208036f09c70b0ec9a88b78
  Z: 8.0
  valence: 6
  core: 2
  charge: 0.0
  file: /Users/gabrielbirnbaum/dft_learning/DIR/gpaw-setups-0.9.20000/O.PBE.gz
  compensation charges: gauss, rc=0.21, lmax=2
  cutoffs: 1.17(filt), 0.83(core),
  valence states:
                energy  radius
    2s(2.00)   -23.961   0.688
    2p(4.00)    -9.029   0.598
    *s           3.251   0.688
    *p          18.182   0.598
    *d           0.000   0.619

  Using partial waves for O as LCAO basis

Reference energy: -9785.711766

Spin-paired calculation

Convergence criteria:
 Maximum [total energy] change in last 3 cyles: 0.0005 eV / electron
 Maximum integral of absolute [dens]ity change: 0.0001 electrons / valence electron
 Maximum integral of absolute [eigenst]ate change: 4e-08 eV^2 / valence electron
 Maximum number of scf [iter]ations: 333
 (Square brackets indicate name in SCF output, whereas a 'c' in
 the SCF output indicates the quantity has converged.)

Symmetries present (total): 48

  ( 1  0  0)  ( 1  0  0)  ( 1  0  0)  ( 1  0  0)  ( 1  0  0)  ( 1  0  0)
  ( 0  1  0)  ( 0  1  0)  ( 0  0  1)  ( 0  0  1)  ( 0  0 -1)  ( 0  0 -1)
  ( 0  0  1)  ( 0  0 -1)  ( 0  1  0)  ( 0 -1  0)  ( 0  1  0)  ( 0 -1  0)

  ( 1  0  0)  ( 1  0  0)  ( 0  1  0)  ( 0  1  0)  ( 0  1  0)  ( 0  1  0)
  ( 0 -1  0)  ( 0 -1  0)  ( 1  0  0)  ( 1  0  0)  ( 0  0  1)  ( 0  0  1)
  ( 0  0  1)  ( 0  0 -1)  ( 0  0  1)  ( 0  0 -1)  ( 1  0  0)  (-1  0  0)

  ( 0  1  0)  ( 0  1  0)  ( 0  1  0)  ( 0  1  0)  ( 0  0  1)  ( 0  0  1)
  ( 0  0 -1)  ( 0  0 -1)  (-1  0  0)  (-1  0  0)  ( 1  0  0)  ( 1  0  0)
  ( 1  0  0)  (-1  0  0)  ( 0  0  1)  ( 0  0 -1)  ( 0  1  0)  ( 0 -1  0)

  ( 0  0  1)  ( 0  0  1)  ( 0  0  1)  ( 0  0  1)  ( 0  0  1)  ( 0  0  1)
  ( 0  1  0)  ( 0  1  0)  ( 0 -1  0)  ( 0 -1  0)  (-1  0  0)  (-1  0  0)
  ( 1  0  0)  (-1  0  0)  ( 1  0  0)  (-1  0  0)  ( 0  1  0)  ( 0 -1  0)

  ( 0  0 -1)  ( 0  0 -1)  ( 0  0 -1)  ( 0  0 -1)  ( 0  0 -1)  ( 0  0 -1)
  ( 1  0  0)  ( 1  0  0)  ( 0  1  0)  ( 0  1  0)  ( 0 -1  0)  ( 0 -1  0)
  ( 0  1  0)  ( 0 -1  0)  ( 1  0  0)  (-1  0  0)  ( 1  0  0)  (-1  0  0)

  ( 0  0 -1)  ( 0  0 -1)  ( 0 -1  0)  ( 0 -1  0)  ( 0 -1  0)  ( 0 -1  0)
  (-1  0  0)  (-1  0  0)  ( 1  0  0)  ( 1  0  0)  ( 0  0  1)  ( 0  0  1)
  ( 0  1  0)  ( 0 -1  0)  ( 0  0  1)  ( 0  0 -1)  ( 1  0  0)  (-1  0  0)

  ( 0 -1  0)  ( 0 -1  0)  ( 0 -1  0)  ( 0 -1  0)  (-1  0  0)  (-1  0  0)
  ( 0  0 -1)  ( 0  0 -1)  (-1  0  0)  (-1  0  0)  ( 0  1  0)  ( 0  1  0)
  ( 1  0  0)  (-1  0  0)  ( 0  0  1)  ( 0  0 -1)  ( 0  0  1)  ( 0  0 -1)

  (-1  0  0)  (-1  0  0)  (-1  0  0)  (-1  0  0)  (-1  0  0)  (-1  0  0)
  ( 0  0  1)  ( 0  0  1)  ( 0  0 -1)  ( 0  0 -1)  ( 0 -1  0)  ( 0 -1  0)
  ( 0  1  0)  ( 0 -1  0)  ( 0  1  0)  ( 0 -1  0)  ( 0  0  1)  ( 0  0 -1)

512 k-points: 8 x 8 x 8 Monkhorst-Pack grid
20 k-points in the irreducible part of the Brillouin zone
       k-points in crystal coordinates                weights
   0:     0.06250000    0.06250000    0.06250000          8/512
   1:     0.18750000    0.06250000    0.06250000         24/512
   2:     0.18750000    0.18750000    0.06250000         24/512
   3:     0.18750000    0.18750000    0.18750000          8/512
   4:     0.31250000    0.06250000    0.06250000         24/512
   5:     0.31250000    0.18750000    0.06250000         48/512
   6:     0.31250000    0.18750000    0.18750000         24/512
   7:     0.31250000    0.31250000    0.06250000         24/512
   8:     0.31250000    0.31250000    0.18750000         24/512
   9:     0.31250000    0.31250000    0.31250000          8/512
          ...
  19:     0.43750000    0.43750000    0.43750000          8/512

Wave functions: Plane wave expansion
  Cutoff energy: 500.000 eV
  Number of coefficients (min, max): 2533, 2581
  Pulay-stress correction: 0.000000 eV/Ang^3 (de/decut=0.000000)
  Using Numpy's FFT
  ScaLapack parameters: grid=1x1, blocksize=None
  Wavefunction extrapolation:
    Improved wavefunction reuse through dual PAW basis

Occupation numbers: Fermi-Dirac: width=0.1000 eV

Eigensolver
   Davidson(niter=2)

Densities:
  Coarse grid: 25*25*25 grid
  Fine grid: 50*50*50 grid
  Total Charge: 0.000000

Density mixing:
  Method: separate
  Backend: pulay
  Linear mixing parameter: 0.05
  Mixing with 5 old densities
  Damping of long wave oscillations: 50

Hamiltonian:
  XC and Coulomb potentials evaluated on a 50*50*50 grid
  Using the PBE Exchange-Correlation functional
  External potential:
    NoExternalPotential

XC parameters: PBE with 2 nearest neighbor stencil

Total number of cores used: 1

Number of atoms: 12
Number of atomic orbitals: 48
Number of bands in calculation: 20
Number of valence electrons: 32
Bands to converge: occupied

... initialized

Initializing position-dependent things.

Density initialized from atomic densities
Creating initial wave functions:
  20 bands from LCAO basis set

  / | Li   Li  |
 | OLi    Li   |
 |  | Li   Li  |
 |  .--O-------.
 | /Li  O Li  /
 O----------*

Positions:
   0 Li     1.164710    1.164710    3.494131    ( 0.0000,  0.0000,  0.0000)
   1 Li     1.164710    3.494131    3.494131    ( 0.0000,  0.0000,  0.0000)
   2 Li     1.164710    3.494131    1.164710    ( 0.0000,  0.0000,  0.0000)
   3 Li     1.164710    1.164710    1.164710    ( 0.0000,  0.0000,  0.0000)
   4 Li     3.494131    1.164710    1.164710    ( 0.0000,  0.0000,  0.0000)
   5 Li     3.494131    3.494131    1.164710    ( 0.0000,  0.0000,  0.0000)
   6 Li     3.494131    3.494131    3.494131    ( 0.0000,  0.0000,  0.0000)
   7 Li     3.494131    1.164710    3.494131    ( 0.0000,  0.0000,  0.0000)
   8 O      0.000000    0.000000    0.000000    ( 0.0000,  0.0000,  0.0000)
   9 O      0.000000    2.329421    2.329421    ( 0.0000,  0.0000,  0.0000)
  10 O      2.329421    0.000000    2.329421    ( 0.0000,  0.0000,  0.0000)
  11 O      2.329421    2.329421    0.000000    ( 0.0000,  0.0000,  0.0000)

Unit cell:
           periodic     x           y           z      points  spacing
  1. axis:    yes    4.658842    0.000000    0.000000    25     0.1864
  2. axis:    yes    0.000000    4.658842    0.000000    25     0.1864
  3. axis:    yes    0.000000    0.000000    4.658842    25     0.1864

  Lengths:   4.658842   4.658842   4.658842
  Angles:   90.000000  90.000000  90.000000

Effective grid spacing dv^(1/3) = 0.1864

     iter     time        total  log10-change:
                         energy  eigst   dens
iter:   1 12:05:56   -59.058741
iter:   2 12:05:59   -58.240108  -1.59  -0.78
iter:   3 12:06:03   -56.306649  -1.21  -0.82
iter:   4 12:06:06   -56.742776  -0.81  -1.03
iter:   5 12:06:10   -56.076011  -1.49  -1.22
iter:   6 12:06:13   -56.065081  -2.63  -1.63
iter:   7 12:06:17   -56.055385  -2.08  -1.78
iter:   8 12:06:20   -56.052944c -3.14  -2.40
iter:   9 12:06:23   -56.052503c -4.02  -2.30
iter:  10 12:06:27   -56.052461c -4.84  -3.01
iter:  11 12:06:30   -56.052491c -5.09  -3.32
iter:  12 12:06:34   -56.052530c -5.90  -3.22
iter:  13 12:06:37   -56.052497c -6.65  -3.12
iter:  14 12:06:41   -56.052444c -5.16  -3.20
iter:  15 12:06:45   -56.052442c -6.56  -3.97
iter:  16 12:06:48   -56.052439c -6.73  -4.01c
iter:  17 12:06:52   -56.052439c -7.94c -4.33c

Converged after 17 iterations.

Dipole moment: (-0.000000, -0.000000, -0.000000) |e|*Ang

Energy contributions relative to reference atoms: (reference = -9785.711766)

Kinetic:        +52.549502
Potential:      -45.590606
External:        +0.000000
XC:             -63.153590
Entropy (-ST):   -0.000000
Local:           +0.142255
Free energy:    -56.052439
Extrapolated:   -56.052439

Showing only first 2 kpts
 Kpt  Band  Eigenvalues  Occupancy
  0    14      1.22091    2.00000
  0    15      1.22091    2.00000
  0    16      6.30286    0.00000
  0    17      6.30286    0.00000

  1    14      1.10586    2.00000
  1    15      1.16142    2.00000
  1    16      6.52976    0.00000
  1    17      6.66206    0.00000

Fermi level: 4.10902

Gap: 5.082 eV
Transition (v -> c):
  (s=0, k=0, n=15, [0.06, 0.06, 0.06]) -> (s=0, k=0, n=16, [0.06, 0.06, 0.06])
Timing:                              incl.     excl.
Hamiltonian:                         0.257     0.001   0.0% |
 Atomic:                             0.208     0.001   0.0% |
  XC Correction:                     0.207     0.207   0.0% |
 Calculate atomic Hamiltonians:      0.016     0.016   0.0% |
 Communicate:                        0.000     0.000   0.0% |
 Initialize Hamiltonian:             0.000     0.000   0.0% |
 Poisson:                            0.000     0.000   0.0% |
 XC 3D grid:                         0.031     0.031   0.0% |
LCAO initialization:                 4.257     0.038   0.0% |
 LCAO eigensolver:                   0.999     0.001   0.0% |
  Calculate projections:             0.002     0.002   0.0% |
  DenseAtomicCorrection:             0.008     0.008   0.0% |
  Distribute overlap matrix:         0.001     0.001   0.0% |
  Orbital Layouts:                   0.023     0.023   0.0% |
  Potential matrix:                  0.940     0.940   0.1% |
  Sum over cells:                    0.024     0.024   0.0% |
 LCAO to grid:                       2.225     2.225   0.3% |
 Set positions (LCAO WFS):           0.994     0.170   0.0% |
  Basic WFS set positions:           0.012     0.012   0.0% |
  Basis functions set positions:     0.000     0.000   0.0% |
  P tci:                             0.380     0.380   0.1% |
  ST tci:                            0.391     0.391   0.1% |
  mktci:                             0.042     0.042   0.0% |
PWDescriptor:                        0.008     0.008   0.0% |
SCF-cycle:                          57.623     0.045   0.0% |
 Davidson:                          47.319     5.222   0.8% |
  Apply H:                           9.895     9.705   1.5% ||
   HMM T:                            0.191     0.191   0.0% |
  Subspace diag:                    10.390     0.026   0.0% |
   calc_h_matrix:                   10.042     0.251   0.0% |
    Apply H:                         9.791     9.650   1.5% ||
     HMM T:                          0.141     0.141   0.0% |
   diagonalize:                      0.083     0.083   0.0% |
   rotate_psi:                       0.239     0.239   0.0% |
  calc. matrices:                   21.009     1.376   0.2% |
   Apply H:                         19.634    19.300   2.9% ||
    HMM T:                           0.333     0.333   0.1% |
  diagonalize:                       0.354     0.354   0.1% |
  rotate_psi:                        0.447     0.447   0.1% |
 Density:                            5.526     0.000   0.0% |
  Atomic density matrices:           0.125     0.125   0.0% |
  Mix:                               0.540     0.540   0.1% |
  Multipole moments:                 0.004     0.004   0.0% |
  Pseudo density:                    4.858     4.543   0.7% |
   Symmetrize density:               0.315     0.315   0.0% |
 Hamiltonian:                        4.663     0.019   0.0% |
  Atomic:                            3.682     0.021   0.0% |
   XC Correction:                    3.661     3.661   0.6% |
  Calculate atomic Hamiltonians:     0.366     0.366   0.1% |
  Communicate:                       0.000     0.000   0.0% |
  Poisson:                           0.009     0.009   0.0% |
  XC 3D grid:                        0.587     0.587   0.1% |
 Orthonormalize:                     0.070     0.001   0.0% |
  calc_s_matrix:                     0.009     0.009   0.0% |
  inverse-cholesky:                  0.001     0.001   0.0% |
  projections:                       0.052     0.052   0.0% |
  rotate_psi_s:                      0.006     0.006   0.0% |
Set symmetry:                        0.031     0.031   0.0% |
Other:                             601.913   601.913  90.6% |-----------------------------------|
Total:                                       664.090 100.0%