User:   gabrielbirnbaum@Gabriels-MacBook-Pro.local
Date:   Mon Jul 18 22:02:34 2022
Arch:   x86_64
Pid:    65545
Python: 3.9.13
gpaw:   /Users/gabrielbirnbaum/PycharmProjects/nanolithia/venv/lib/python3.9/site-packages/gpaw
_gpaw:  /Users/gabrielbirnbaum/PycharmProjects/nanolithia/venv/lib/python3.9/site-packages/
        _gpaw.cpython-39-darwin.so
ase:    /Users/gabrielbirnbaum/PycharmProjects/nanolithia/venv/lib/python3.9/site-packages/ase (version 3.22.1)
numpy:  /Users/gabrielbirnbaum/PycharmProjects/nanolithia/venv/lib/python3.9/site-packages/numpy (version 1.23.0)
scipy:  /Users/gabrielbirnbaum/PycharmProjects/nanolithia/venv/lib/python3.9/site-packages/scipy (version 1.8.1)
units:  Angstrom and eV
cores: 1
OpenMP: False
OMP_NUM_THREADS: 1

Input parameters:
  kpts: {size: (8, 8, 8)}
  mode: {ecut: 400.0,
         name: pw}
  setups: {O: :p,0.76}
  xc: PBE

System changes: positions, numbers, cell, pbc, initial_charges, initial_magmoms

Initialize ...

Li-setup:
  name: Lithium
  id: 830b4218f175192f93f959cfc0aad614
  Z: 3.0
  valence: 1
  core: 2
  charge: 0.0
  file: /Users/gabrielbirnbaum/dft_learning/DIR/gpaw-setups-0.9.20000/Li.PBE.gz
  compensation charges: gauss, rc=0.33, lmax=2
  cutoffs: 1.91(filt), 2.55(core),
  valence states:
                energy  radius
    2s(1.00)    -2.874   1.058
    2p(0.00)    -1.090   1.058
    *s          24.337   1.058

  Using partial waves for Li as LCAO basis

O-setup:
  name: Oxygen
  id: 32ecd46bf208036f09c70b0ec9a88b78
  Z: 8.0
  valence: 6
  core: 2
  charge: 0.0
  Hubbard U: 0.760000 eV (l=1, scale=True)
  file: /Users/gabrielbirnbaum/dft_learning/DIR/gpaw-setups-0.9.20000/O.PBE.gz
  compensation charges: gauss, rc=0.21, lmax=2
  cutoffs: 1.17(filt), 0.83(core),
  valence states:
                energy  radius
    2s(2.00)   -23.961   0.688
    2p(4.00)    -9.029   0.598
    *s           3.251   0.688
    *p          18.182   0.598
    *d           0.000   0.619

  Using partial waves for O as LCAO basis

Reference energy: -8974.560486

Spin-paired calculation

Convergence criteria:
 Maximum [total energy] change in last 3 cyles: 0.0005 eV / electron
 Maximum integral of absolute [dens]ity change: 0.0001 electrons / valence electron
 Maximum integral of absolute [eigenst]ate change: 4e-08 eV^2 / valence electron
 Maximum number of scf [iter]ations: 333
 (Square brackets indicate name in SCF output, whereas a 'c' in
 the SCF output indicates the quantity has converged.)

Symmetries present (total): 4

  ( 1  0  0)  ( 0  1  0)  ( 0 -1  0)  (-1  0  0)
  ( 0  1  0)  ( 1  0  0)  (-1  0  0)  ( 0 -1  0)
  ( 0  0  1)  ( 0  0 -1)  ( 0  0  1)  ( 0  0 -1)

512 k-points: 8 x 8 x 8 Monkhorst-Pack grid
144 k-points in the irreducible part of the Brillouin zone
       k-points in crystal coordinates                weights
   0:     0.06250000   -0.06250000   -0.43750000          2/512
   1:     0.06250000   -0.06250000   -0.31250000          2/512
   2:     0.06250000   -0.06250000   -0.18750000          2/512
   3:     0.06250000   -0.06250000   -0.06250000          2/512
   4:     0.06250000   -0.06250000    0.06250000          2/512
   5:     0.06250000   -0.06250000    0.18750000          2/512
   6:     0.06250000   -0.06250000    0.31250000          2/512
   7:     0.06250000   -0.06250000    0.43750000          2/512
   8:     0.06250000    0.06250000    0.06250000          4/512
   9:     0.06250000    0.06250000    0.18750000          4/512
          ...
 143:     0.43750000    0.43750000    0.43750000          4/512

Wave functions: Plane wave expansion
  Cutoff energy: 400.000 eV
  Number of coefficients (min, max): 1204, 1241
  Pulay-stress correction: 0.000000 eV/Ang^3 (de/decut=0.000000)
  Using Numpy's FFT
  ScaLapack parameters: grid=1x1, blocksize=None
  Wavefunction extrapolation:
    Improved wavefunction reuse through dual PAW basis

Occupation numbers: Fermi-Dirac: width=0.1000 eV

Eigensolver
   Davidson(niter=2)

Densities:
  Coarse grid: 15*15*36 grid
  Fine grid: 30*30*72 grid
  Total Charge: 0.000000

Density mixing:
  Method: separate
  Backend: pulay
  Linear mixing parameter: 0.05
  Mixing with 5 old densities
  Damping of long wave oscillations: 50

Hamiltonian:
  XC and Coulomb potentials evaluated on a 30*30*72 grid
  Using the PBE Exchange-Correlation functional
  External potential:
    NoExternalPotential

XC parameters: PBE with 2 nearest neighbor stencil

Total number of cores used: 1

Number of atoms: 8
Number of atomic orbitals: 32
Number of bands in calculation: 21
Number of valence electrons: 28
Bands to converge: occupied

... initialized

Initializing position-dependent things.

Density initialized from atomic densities
Creating initial wave functions:
  21 bands from LCAO basis set

             O

           LiO

[...]

           O Li

           O
        Li

Positions:
   0 Li     0.000000    0.000000    3.851761    ( 0.0000,  0.0000,  0.0000)
   1 Li     0.000000    0.000000    0.000000    ( 0.0000,  0.0000,  0.0000)
   2 Li     1.590181   -0.918093    5.777642    ( 0.0000,  0.0000,  0.0000)
   3 Li     1.590181    0.918093    1.925881    ( 0.0000,  0.0000,  0.0000)
   4 O      1.590181   -0.918093    1.150213    ( 0.0000,  0.0000,  0.0000)
   5 O      1.590181    0.918093    5.001974    ( 0.0000,  0.0000,  0.0000)
   6 O      1.590181    0.918093    6.553309    ( 0.0000,  0.0000,  0.0000)
   7 O      1.590181   -0.918093    2.701548    ( 0.0000,  0.0000,  0.0000)

Unit cell:
           periodic     x           y           z      points  spacing
  1. axis:    yes    1.590181   -2.754274    0.000000    15     0.1836
  2. axis:    yes    1.590181    2.754274    0.000000    15     0.1836
  3. axis:    yes    0.000000    0.000000    7.703522    36     0.2140

  Lengths:   3.180362   3.180362   7.703522
  Angles:   90.000000  90.000000 119.999995

Effective grid spacing dv^(1/3) = 0.2027

     iter     time        total  log10-change:
                         energy  eigst   dens
iter:   1 22:02:59   -31.326414
iter:   2 22:03:11   -31.228038  -1.69  -0.89
iter:   3 22:03:23   -30.649305  -1.43  -0.92
iter:   4 22:03:37   -30.801465  -1.60  -1.30
iter:   5 22:03:51   -30.642918  -2.02  -1.54
iter:   6 22:04:03   -30.654385  -3.21  -2.03
iter:   7 22:04:16   -30.642489c -2.49  -1.93
iter:   8 22:04:28   -30.631249  -3.72  -2.12
iter:   9 22:04:41   -30.630800c -4.76  -2.53
iter:  10 22:04:53   -30.633688c -4.29  -2.61
iter:  11 22:05:05   -30.637493c -4.22  -2.37
iter:  12 22:05:18   -30.631870c -4.03  -2.24
iter:  13 22:05:30   -30.630545c -4.08  -2.59
iter:  14 22:05:42   -30.630554c -5.60  -3.32
iter:  15 22:05:53   -30.630568c -6.26  -3.37
iter:  16 22:06:04   -30.630565c -6.74  -3.47
iter:  17 22:06:16   -30.630572c -6.24  -3.55
iter:  18 22:06:27   -30.630570c -7.02  -3.83
iter:  19 22:06:38   -30.630572c -7.60c -3.99
iter:  20 22:06:50   -30.630572c -8.99c -4.21c

Converged after 20 iterations.

Dipole moment: (0.000000, -0.000000, -0.000000) |e|*Ang

Energy contributions relative to reference atoms: (reference = -8974.560486)

Kinetic:         +9.928906
Potential:       -1.269131
External:        +0.000000
XC:             -38.938926
Entropy (-ST):   -0.000005
Local:           -0.351418
Free energy:    -30.630574
Extrapolated:   -30.630572

Showing only first 2 kpts
 Kpt  Band  Eigenvalues  Occupancy
  0    12      2.45357    2.00000
  0    13      2.51408    2.00000
  0    14      5.79644    0.00000
  0    15      6.24236    0.00000

  1    12      2.48938    2.00000
  1    13      2.55713    1.99999
  1    14      5.37141    0.00000
  1    15      6.65092    0.00000

Fermi level: 3.82192

Gap: 2.204 eV
Transition (v -> c):
  (s=0, k=4, n=13, [0.06, -0.06, 0.06]) -> (s=0, k=4, n=14, [0.06, -0.06, 0.06])
Timing:                              incl.     excl.
Hamiltonian:                         0.218     0.001   0.0% |
 Atomic:                             0.179     0.003   0.0% |
  XC Correction:                     0.176     0.176   0.0% |
 Calculate atomic Hamiltonians:      0.014     0.014   0.0% |
 Communicate:                        0.000     0.000   0.0% |
 Initialize Hamiltonian:             0.000     0.000   0.0% |
 Poisson:                            0.000     0.000   0.0% |
 XC 3D grid:                         0.024     0.024   0.0% |
LCAO initialization:                14.152     0.042   0.0% |
 LCAO eigensolver:                   0.862     0.006   0.0% |
  Calculate projections:             0.011     0.011   0.0% |
  DenseAtomicCorrection:             0.038     0.038   0.0% |
  Distribute overlap matrix:         0.004     0.004   0.0% |
  Orbital Layouts:                   0.100     0.100   0.0% |
  Potential matrix:                  0.560     0.560   0.1% |
  Sum over cells:                    0.143     0.143   0.0% |
 LCAO to grid:                       9.319     9.319   1.7% ||
 Set positions (LCAO WFS):           3.929     0.536   0.1% |
  Basic WFS set positions:           0.001     0.001   0.0% |
  Basis functions set positions:     0.000     0.000   0.0% |
  P tci:                             1.504     1.504   0.3% |
  ST tci:                            1.838     1.838   0.3% |
  mktci:                             0.051     0.051   0.0% |
PWDescriptor:                        0.041     0.041   0.0% |
SCF-cycle:                         240.076     0.573   0.1% |
 Davidson:                         214.146    18.485   3.3% ||
  Apply H:                          44.296    43.564   7.8% |--|
   HMM T:                            0.733     0.733   0.1% |
  Subspace diag:                    47.734     0.207   0.0% |
   calc_h_matrix:                   45.639     1.455   0.3% |
    Apply H:                        44.184    43.438   7.8% |--|
     HMM T:                          0.746     0.746   0.1% |
   diagonalize:                      0.716     0.716   0.1% |
   rotate_psi:                       1.172     1.172   0.2% |
  calc. matrices:                   98.096     9.730   1.7% ||
   Apply H:                         88.366    86.933  15.6% |-----|
    HMM T:                           1.433     1.433   0.3% |
  diagonalize:                       3.372     3.372   0.6% |
  rotate_psi:                        2.163     2.163   0.4% |
 Density:                           21.249     0.000   0.0% |
  Atomic density matrices:           0.365     0.365   0.1% |
  Mix:                               0.237     0.237   0.0% |
  Multipole moments:                 0.004     0.004   0.0% |
  Pseudo density:                   20.644    20.626   3.7% ||
   Symmetrize density:               0.018     0.018   0.0% |
 Hamiltonian:                        3.883     0.014   0.0% |
  Atomic:                            3.276     0.057   0.0% |
   XC Correction:                    3.220     3.220   0.6% |
  Calculate atomic Hamiltonians:     0.202     0.202   0.0% |
  Communicate:                       0.000     0.000   0.0% |
  Poisson:                           0.013     0.013   0.0% |
  XC 3D grid:                        0.377     0.377   0.1% |
 Orthonormalize:                     0.225     0.009   0.0% |
  calc_s_matrix:                     0.045     0.045   0.0% |
  inverse-cholesky:                  0.011     0.011   0.0% |
  projections:                       0.134     0.134   0.0% |
  rotate_psi_s:                      0.026     0.026   0.0% |
Set symmetry:                        0.011     0.011   0.0% |
Other:                             302.812   302.812  54.3% |---------------------|
Total:                                       557.311 100.0%