User:   gabrielbirnbaum@Gabriels-MacBook-Pro.local
Date:   Sun Jul 24 22:00:12 2022
Arch:   x86_64
Pid:    51106
Python: 3.9.13
gpaw:   /Users/gabrielbirnbaum/PycharmProjects/nanolithia/venv/lib/python3.9/site-packages/gpaw
_gpaw:  /Users/gabrielbirnbaum/PycharmProjects/nanolithia/venv/lib/python3.9/site-packages/
        _gpaw.cpython-39-darwin.so
ase:    /Users/gabrielbirnbaum/PycharmProjects/nanolithia/venv/lib/python3.9/site-packages/ase (version 3.22.1)
numpy:  /Users/gabrielbirnbaum/PycharmProjects/nanolithia/venv/lib/python3.9/site-packages/numpy (version 1.23.0)
scipy:  /Users/gabrielbirnbaum/PycharmProjects/nanolithia/venv/lib/python3.9/site-packages/scipy (version 1.8.1)
units:  Angstrom and eV
cores: 1
OpenMP: False
OMP_NUM_THREADS: 1

Input parameters:
  convergence: {density: 0.001,
                eigenstates: 0.0001,
                energy: 0.0002}
  kpts: {gamma: True,
         size: (10, 10, 10)}
  mode: {ecut: 750.0,
         name: pw}
  setups: {O: :p,0.33,0}
  spinpol: True
  xc: PBE

System changes: positions, numbers, cell, pbc, initial_charges, initial_magmoms

Initialize ...

Li-setup:
  name: Lithium
  id: 830b4218f175192f93f959cfc0aad614
  Z: 3.0
  valence: 1
  core: 2
  charge: 0.0
  file: /Users/gabrielbirnbaum/dft_learning/DIR/gpaw-setups-0.9.20000/Li.PBE.gz
  compensation charges: gauss, rc=0.33, lmax=2
  cutoffs: 1.91(filt), 2.55(core),
  valence states:
                energy  radius
    2s(1.00)    -2.874   1.058
    2p(0.00)    -1.090   1.058
    *s          24.337   1.058

  Using partial waves for Li as LCAO basis

O-setup:
  name: Oxygen
  id: 32ecd46bf208036f09c70b0ec9a88b78
  Z: 8.0
  valence: 6
  core: 2
  charge: 0.0
  Hubbard U: 0.330000 eV (l=1, scale=False)
  file: /Users/gabrielbirnbaum/dft_learning/DIR/gpaw-setups-0.9.20000/O.PBE.gz
  compensation charges: gauss, rc=0.21, lmax=2
  cutoffs: 1.17(filt), 0.83(core),
  valence states:
                energy  radius
    2s(2.00)   -23.961   0.688
    2p(4.00)    -9.029   0.598
    *s           3.251   0.688
    *p          18.182   0.598
    *d           0.000   0.619

  Using partial waves for O as LCAO basis

Reference energy: -8568.984845

Spin-polarized calculation.
Magnetic moment: 0.000000

Convergence criteria:
 Maximum [total energy] change in last 3 cyles: 0.0002 eV / electron
 Maximum integral of absolute [dens]ity change: 0.001 electrons / valence electron
 Maximum integral of absolute [eigenst]ate change: 0.0001 eV^2 / valence electron
 Maximum number of scf [iter]ations: 333
 (Square brackets indicate name in SCF output, whereas a 'c' in
 the SCF output indicates the quantity has converged.)

Symmetries present (total): 4

  ( 1  0  0)  ( 1  0  0)  (-1  0  0)  (-1  0  0)
  ( 0  1  0)  ( 0 -1  0)  ( 0  1  0)  ( 0 -1  0)
  ( 0  0  1)  ( 0  0 -1)  ( 0  0  1)  ( 0  0 -1)

1000 k-points: 10 x 10 x 10 Monkhorst-Pack grid + [1/20,1/20,1/20]
312 k-points in the irreducible part of the Brillouin zone
       k-points in crystal coordinates                weights
   0:     0.00000000    0.00000000    0.00000000          1/1000
   1:     0.00000000    0.00000000    0.10000000          2/1000
   2:     0.00000000    0.00000000    0.20000000          2/1000
   3:     0.00000000    0.00000000    0.30000000          2/1000
   4:     0.00000000    0.00000000    0.40000000          2/1000
   5:     0.00000000    0.00000000    0.50000000          1/1000
   6:     0.00000000    0.10000000   -0.40000000          2/1000
   7:     0.00000000    0.10000000   -0.30000000          2/1000
   8:     0.00000000    0.10000000   -0.20000000          2/1000
   9:     0.00000000    0.10000000   -0.10000000          2/1000
          ...
 311:     0.50000000    0.50000000    0.50000000          1/1000

Wave functions: Plane wave expansion
  Cutoff energy: 750.000 eV
  Number of coefficients (min, max): 2668, 2726
  Pulay-stress correction: 0.000000 eV/Ang^3 (de/decut=0.000000)
  Using Numpy's FFT
  ScaLapack parameters: grid=1x1, blocksize=None
  Wavefunction extrapolation:
    Improved wavefunction reuse through dual PAW basis

Occupation numbers: Fermi-Dirac: width=0.1000 eV

Eigensolver
   Davidson(niter=2)

Densities:
  Coarse grid: 20*27*32 grid
  Fine grid: 40*54*64 grid
  Total Charge: 0.000000

Density mixing:
  Method: difference
  Backend: pulay
  Linear mixing parameter: 0.05
  Mixing with 5 old densities
  Damping of long wave oscillations: 50

Hamiltonian:
  XC and Coulomb potentials evaluated on a 40*54*64 grid
  Using the PBE Exchange-Correlation functional
  External potential:
    NoExternalPotential

XC parameters: PBE with 2 nearest neighbor stencil

Total number of cores used: 1

Number of atoms: 6
Number of atomic orbitals: 24
Number of bands in calculation: 20
Number of valence electrons: 26
Bands to converge: occupied

... initialized

Initializing position-dependent things.

Density initialized from atomic densities
Creating initial wave functions:
  20 bands from LCAO basis set

 * | O    |
 | O      |
 | | Li   |
 O |      |
 | .--O---.
 Li-----*

Positions:
   0 Li     1.480551    1.992835    2.448045    ( 0.0000,  0.0000,  0.0000)
   1 Li     0.000000    0.000000    0.000000    ( 0.0000,  0.0000,  0.0000)
   2 O      1.480551    2.518377    0.419218    ( 0.0000,  0.0000,  0.0000)
   3 O      1.480551    1.467292    4.476872    ( 0.0000,  0.0000,  0.0000)
   4 O      0.000000    0.525542    2.028827    ( 0.0000,  0.0000,  0.0000)
   5 O      0.000000    3.460127    2.867263    ( 0.0000,  0.0000,  0.0000)

Unit cell:
           periodic     x           y           z      points  spacing
  1. axis:    yes    2.961101    0.000000    0.000000    20     0.1481
  2. axis:    yes    0.000000    3.985669    0.000000    27     0.1476
  3. axis:    yes    0.000000    0.000000    4.896090    32     0.1530

  Lengths:   2.961101   3.985669   4.896090
  Angles:   90.000000  90.000000  90.000000

Effective grid spacing dv^(1/3) = 0.1495

     iter     time        total  log10-change:  magmom
                         energy  eigst   dens
iter:   1 22:09:55   -29.868658                  +0.0000
iter:   2 22:11:25   -29.755101  -1.65  -1.01    -0.0000
iter:   3 22:12:56   -29.065452  -1.45  -1.05    -0.0000
iter:   4 22:14:25   -29.101937  -2.00  -1.47    -0.0000
iter:   5 22:15:59   -29.069437  -1.99  -1.66    -0.0000
iter:   6 22:17:31   -29.062742  -4.03c -2.13    +0.0000
iter:   7 00:19:02   -29.060254  -2.95  -2.27    -0.0000
iter:   8 06:14:27   -29.060587c -4.11c -2.53    -0.0000
iter:   9 06:15:55   -29.060699c -5.30c -2.60    -0.0000
iter:  10 06:17:25   -29.059000c -3.75  -2.57    -0.0000
iter:  11 06:18:55   -29.058968c -5.07c -3.39c   -0.0000

Converged after 11 iterations.

Dipole moment: (0.000000, 0.000000, 0.000000) |e|*Ang

Total magnetic moment: (0.000000, 0.000000, -0.000000)
Local magnetic moments:
   0 Li ( 0.000000,  0.000000, -0.000000)
   1 Li ( 0.000000,  0.000000,  0.000000)
   2 O  ( 0.000000,  0.000000,  0.000000)
   3 O  ( 0.000000,  0.000000,  0.000000)
   4 O  ( 0.000000,  0.000000, -0.000000)
   5 O  ( 0.000000,  0.000000, -0.000000)

Energy contributions relative to reference atoms: (reference = -8568.984845)

Kinetic:        +31.922320
Potential:      -33.422430
External:        +0.000000
XC:             -28.376623
Entropy (-ST):   -0.177440
Local:           +0.906485
Free energy:    -29.147688
Extrapolated:   -29.058968

Spin contamination: 0.000000 electrons
Showing only first 2 kpts
                      Up                     Down
 Kpt  Band  Eigenvalues  Occupancy  Eigenvalues  Occupancy
  0    11      2.16823    0.17416      2.16823    0.17416
  0    12      2.39400    0.02158      2.39400    0.02158
  0    13      2.48333    0.00895      2.48333    0.00895
  0    14      8.45813    0.00000      8.45813    0.00000

  1    11      2.10822    0.27761      2.10822    0.27761
  1    12      2.39702    0.02095      2.39702    0.02095
  1    13      2.48191    0.00907      2.48191    0.00907
  1    14      8.39793    0.00000      8.39793    0.00000

Fermi level: 2.01259