User:   gabrielbirnbaum@Gabriels-MacBook-Pro.local
Date:   Wed Jul 20 14:55:02 2022
Arch:   x86_64
Pid:    30164
Python: 3.9.13
gpaw:   /Users/gabrielbirnbaum/PycharmProjects/nanolithia/venv/lib/python3.9/site-packages/gpaw
_gpaw:  /Users/gabrielbirnbaum/PycharmProjects/nanolithia/venv/lib/python3.9/site-packages/
        _gpaw.cpython-39-darwin.so
ase:    /Users/gabrielbirnbaum/PycharmProjects/nanolithia/venv/lib/python3.9/site-packages/ase (version 3.22.1)
numpy:  /Users/gabrielbirnbaum/PycharmProjects/nanolithia/venv/lib/python3.9/site-packages/numpy (version 1.23.0)
scipy:  /Users/gabrielbirnbaum/PycharmProjects/nanolithia/venv/lib/python3.9/site-packages/scipy (version 1.8.1)
units:  Angstrom and eV
cores: 1
OpenMP: False
OMP_NUM_THREADS: 1

Input parameters:
  convergence: {density: 0.001,
                eigenstates: 0.0001,
                energy: 0.0002}
  kpts: {gamma: True,
         size: (8, 8, 8)}
  mode: {ecut: 500.0,
         name: pw}
  spinpol: True
  xc: PBE

System changes: positions, numbers, cell, pbc, initial_charges, initial_magmoms

Initialize ...

Li-setup:
  name: Lithium
  id: 830b4218f175192f93f959cfc0aad614
  Z: 3.0
  valence: 1
  core: 2
  charge: 0.0
  file: /Users/gabrielbirnbaum/dft_learning/DIR/gpaw-setups-0.9.20000/Li.PBE.gz
  compensation charges: gauss, rc=0.33, lmax=2
  cutoffs: 1.91(filt), 2.55(core),
  valence states:
                energy  radius
    2s(1.00)    -2.874   1.058
    2p(0.00)    -1.090   1.058
    *s          24.337   1.058

  Using partial waves for Li as LCAO basis

O-setup:
  name: Oxygen
  id: 32ecd46bf208036f09c70b0ec9a88b78
  Z: 8.0
  valence: 6
  core: 2
  charge: 0.0
  file: /Users/gabrielbirnbaum/dft_learning/DIR/gpaw-setups-0.9.20000/O.PBE.gz
  compensation charges: gauss, rc=0.21, lmax=2
  cutoffs: 1.17(filt), 0.83(core),
  valence states:
                energy  radius
    2s(2.00)   -23.961   0.688
    2p(4.00)    -9.029   0.598
    *s           3.251   0.688
    *p          18.182   0.598
    *d           0.000   0.619

  Using partial waves for O as LCAO basis

Reference energy: -8366.197025

Spin-polarized calculation.
Magnetic moment: 0.000000

Convergence criteria:
 Maximum [total energy] change in last 3 cyles: 0.0002 eV / electron
 Maximum integral of absolute [dens]ity change: 0.001 electrons / valence electron
 Maximum integral of absolute [eigenst]ate change: 0.0001 eV^2 / valence electron
 Maximum number of scf [iter]ations: 333
 (Square brackets indicate name in SCF output, whereas a 'c' in
 the SCF output indicates the quantity has converged.)

Symmetries present (total): 6

  ( 1  0  0)  ( 1  0  0)  ( 0  0  1)  ( 0  0  1)  ( 0 -1  0)  ( 0 -1  0)
  ( 0  1  0)  ( 0  0 -1)  ( 0  1  0)  (-1  0  0)  ( 0  0 -1)  (-1  0  0)
  ( 0  0  1)  ( 0 -1  0)  ( 1  0  0)  ( 0 -1  0)  ( 1  0  0)  ( 0  0  1)

512 k-points: 8 x 8 x 8 Monkhorst-Pack grid + [1/16,1/16,1/16]
65 k-points in the irreducible part of the Brillouin zone
       k-points in crystal coordinates                weights
   0:     0.00000000    0.00000000    0.00000000          1/512
   1:     0.12500000   -0.12500000    0.12500000          2/512
   2:     0.12500000    0.00000000    0.00000000          6/512
   3:     0.12500000    0.00000000    0.12500000          6/512
   4:     0.12500000    0.12500000    0.00000000          6/512
   5:     0.12500000    0.12500000    0.12500000          6/512
   6:     0.25000000   -0.25000000    0.25000000          2/512
   7:     0.25000000   -0.12500000    0.12500000          6/512
   8:     0.25000000   -0.12500000    0.25000000          6/512
   9:     0.25000000    0.00000000    0.00000000          6/512
          ...
  64:     0.50000000    0.50000000    0.50000000          1/512

Wave functions: Plane wave expansion
  Cutoff energy: 500.000 eV
  Number of coefficients (min, max): 2512, 2612
  Pulay-stress correction: 0.000000 eV/Ang^3 (de/decut=0.000000)
  Using Numpy's FFT
  ScaLapack parameters: grid=1x1, blocksize=None
  Wavefunction extrapolation:
    Improved wavefunction reuse through dual PAW basis

Occupation numbers: Fermi-Dirac: width=0.1000 eV

Eigensolver
   Davidson(niter=2)

Densities:
  Coarse grid: 25*25*25 grid
  Fine grid: 50*50*50 grid
  Total Charge: 0.000000

Density mixing:
  Method: difference
  Backend: pulay
  Linear mixing parameter: 0.05
  Mixing with 5 old densities
  Damping of long wave oscillations: 50

Hamiltonian:
  XC and Coulomb potentials evaluated on a 50*50*50 grid
  Using the PBE Exchange-Correlation functional
  External potential:
    NoExternalPotential

XC parameters: PBE with 2 nearest neighbor stencil

Total number of cores used: 1

Number of atoms: 5
Number of atomic orbitals: 20
Number of bands in calculation: 19
Number of valence electrons: 25
Bands to converge: occupied

... initialized

Initializing position-dependent things.

Density initialized from atomic densities
Creating initial wave functions:
  19 bands from LCAO basis set

 | O|     Li   |
 |  .--O-------.
 | /    O     /
 O----------*

Positions:
   0 Li     3.494131    1.164710    3.494131    ( 0.0000,  0.0000,  0.0000)
   1 O      0.000000    0.000000    0.000000    ( 0.0000,  0.0000,  0.0000)
   2 O      0.000000    2.329421    2.329421    ( 0.0000,  0.0000,  0.0000)
   3 O      2.329421    0.000000    2.329421    ( 0.0000,  0.0000,  0.0000)
   4 O      2.329421    2.329421    0.000000    ( 0.0000,  0.0000,  0.0000)

Unit cell:
           periodic     x           y           z      points  spacing
  1. axis:    yes    4.658842    0.000000    0.000000    25     0.1864
  2. axis:    yes    0.000000    4.658842    0.000000    25     0.1864
  3. axis:    yes    0.000000    0.000000    4.658842    25     0.1864

  Lengths:   4.658842   4.658842   4.658842
  Angles:   90.000000  90.000000  90.000000

Effective grid spacing dv^(1/3) = 0.1864

     iter     time        total  log10-change:  magmom
                         energy  eigst   dens
iter:   1 14:55:59   -10.246245                  +0.0000
iter:   2 14:56:22   -10.181792  -2.35  -1.08    +0.0000
iter:   3 14:56:48    -9.886957  -2.17  -1.12    -0.0000
iter:   4 14:57:13    -9.887377  -3.59  -1.58    +0.0000
iter:   5 14:57:40    -9.880912  -4.48c -1.76    -0.0000
iter:   6 14:58:04    -9.912687  -2.88  -1.89    +0.0000
iter:   7 14:58:23    -9.894894  -4.26c -1.51    -0.0000
iter:   8 14:58:44    -9.889612  -4.07c -1.73    -0.0000
iter:   9 14:59:05    -9.891634  -4.26c -2.16    -0.0000
iter:  10 14:59:25    -9.891636c -5.64c -3.50c   -0.0000

Converged after 10 iterations.

Dipole moment: (0.726207, -0.726207, 0.726207) |e|*Ang

Total magnetic moment: (0.000000, 0.000000, -0.000000)
Local magnetic moments:
   0 Li ( 0.000000,  0.000000, -0.000000)
   1 O  ( 0.000000,  0.000000, -0.000000)
   2 O  ( 0.000000,  0.000000, -0.000000)
   3 O  ( 0.000000,  0.000000, -0.000000)
   4 O  ( 0.000000,  0.000000, -0.000000)

Energy contributions relative to reference atoms: (reference = -8366.197025)

Kinetic:         -4.176973
Potential:       +0.746003
External:        +0.000000
XC:              -6.324076
Entropy (-ST):   -0.698688
Local:           +0.212754
Free energy:    -10.240980
Extrapolated:    -9.891636

Spin contamination: 0.000000 electrons
Showing only first 2 kpts
                      Up                     Down
 Kpt  Band  Eigenvalues  Occupancy  Eigenvalues  Occupancy
  0    10     -4.76706    0.73886     -4.76706    0.73886
  0    11     -4.76706    0.73886     -4.76706    0.73886
  0    12     -4.76635    0.73749     -4.76635    0.73749
  0    13     -4.36687    0.04918     -4.36687    0.04918

  1    10     -4.80642    0.80747     -4.80642    0.80747
  1    11     -4.80642    0.80747     -4.80642    0.80747
  1    12     -4.73209    0.66605     -4.73209    0.66605
  1    13     -4.62032    0.39475     -4.62032    0.39475

Fermi level: -4.66305