User:   gabrielbirnbaum@Gabriels-MacBook-Pro.local
Date:   Wed Jul 20 14:32:47 2022
Arch:   x86_64
Pid:    30164
Python: 3.9.13
gpaw:   /Users/gabrielbirnbaum/PycharmProjects/nanolithia/venv/lib/python3.9/site-packages/gpaw
_gpaw:  /Users/gabrielbirnbaum/PycharmProjects/nanolithia/venv/lib/python3.9/site-packages/
        _gpaw.cpython-39-darwin.so
ase:    /Users/gabrielbirnbaum/PycharmProjects/nanolithia/venv/lib/python3.9/site-packages/ase (version 3.22.1)
numpy:  /Users/gabrielbirnbaum/PycharmProjects/nanolithia/venv/lib/python3.9/site-packages/numpy (version 1.23.0)
scipy:  /Users/gabrielbirnbaum/PycharmProjects/nanolithia/venv/lib/python3.9/site-packages/scipy (version 1.8.1)
units:  Angstrom and eV
cores: 1
OpenMP: False
OMP_NUM_THREADS: 1

Input parameters:
  convergence: {density: 0.001,
                eigenstates: 0.0001,
                energy: 0.0002}
  kpts: {gamma: True,
         size: (8, 8, 8)}
  mode: {ecut: 500.0,
         name: pw}
  spinpol: True
  xc: PBE

System changes: positions, numbers, cell, pbc, initial_charges, initial_magmoms

Initialize ...

Li-setup:
  name: Lithium
  id: 830b4218f175192f93f959cfc0aad614
  Z: 3.0
  valence: 1
  core: 2
  charge: 0.0
  file: /Users/gabrielbirnbaum/dft_learning/DIR/gpaw-setups-0.9.20000/Li.PBE.gz
  compensation charges: gauss, rc=0.33, lmax=2
  cutoffs: 1.91(filt), 2.55(core),
  valence states:
                energy  radius
    2s(1.00)    -2.874   1.058
    2p(0.00)    -1.090   1.058
    *s          24.337   1.058

  Using partial waves for Li as LCAO basis

O-setup:
  name: Oxygen
  id: 32ecd46bf208036f09c70b0ec9a88b78
  Z: 8.0
  valence: 6
  core: 2
  charge: 0.0
  file: /Users/gabrielbirnbaum/dft_learning/DIR/gpaw-setups-0.9.20000/O.PBE.gz
  compensation charges: gauss, rc=0.21, lmax=2
  cutoffs: 1.17(filt), 0.83(core),
  valence states:
                energy  radius
    2s(2.00)   -23.961   0.688
    2p(4.00)    -9.029   0.598
    *s           3.251   0.688
    *p          18.182   0.598
    *d           0.000   0.619

  Using partial waves for O as LCAO basis

Reference energy: -8771.772665

Spin-polarized calculation.
Magnetic moment: 0.000000

Convergence criteria:
 Maximum [total energy] change in last 3 cyles: 0.0002 eV / electron
 Maximum integral of absolute [dens]ity change: 0.001 electrons / valence electron
 Maximum integral of absolute [eigenst]ate change: 0.0001 eV^2 / valence electron
 Maximum number of scf [iter]ations: 333
 (Square brackets indicate name in SCF output, whereas a 'c' in
 the SCF output indicates the quantity has converged.)

Symmetries present (total): 2

  ( 1  0  0)  ( 1  0  0)
  ( 0  1  0)  ( 0  0  1)
  ( 0  0  1)  ( 0  1  0)

512 k-points: 8 x 8 x 8 Monkhorst-Pack grid + [1/16,1/16,1/16]
150 k-points in the irreducible part of the Brillouin zone
       k-points in crystal coordinates                weights
   0:     0.00000000    0.00000000    0.00000000          1/512
   1:     0.00000000    0.12500000   -0.12500000          2/512
   2:     0.00000000    0.12500000    0.00000000          4/512
   3:     0.00000000    0.12500000    0.12500000          2/512
   4:     0.00000000    0.25000000   -0.25000000          2/512
   5:     0.00000000    0.25000000   -0.12500000          4/512
   6:     0.00000000    0.25000000    0.00000000          4/512
   7:     0.00000000    0.25000000    0.12500000          4/512
   8:     0.00000000    0.25000000    0.25000000          2/512
   9:     0.00000000    0.37500000   -0.37500000          2/512
          ...
 149:     0.50000000    0.50000000    0.50000000          1/512

Wave functions: Plane wave expansion
  Cutoff energy: 500.000 eV
  Number of coefficients (min, max): 2512, 2612
  Pulay-stress correction: 0.000000 eV/Ang^3 (de/decut=0.000000)
  Using Numpy's FFT
  ScaLapack parameters: grid=1x1, blocksize=None
  Wavefunction extrapolation:
    Improved wavefunction reuse through dual PAW basis

Occupation numbers: Fermi-Dirac: width=0.1000 eV

Eigensolver
   Davidson(niter=2)

Densities:
  Coarse grid: 25*25*25 grid
  Fine grid: 50*50*50 grid
  Total Charge: 0.000000

Density mixing:
  Method: difference
  Backend: pulay
  Linear mixing parameter: 0.05
  Mixing with 5 old densities
  Damping of long wave oscillations: 50

Hamiltonian:
  XC and Coulomb potentials evaluated on a 50*50*50 grid
  Using the PBE Exchange-Correlation functional
  External potential:
    NoExternalPotential

XC parameters: PBE with 2 nearest neighbor stencil

Total number of cores used: 1

Number of atoms: 7
Number of atomic orbitals: 28
Number of bands in calculation: 21
Number of valence electrons: 27
Bands to converge: occupied

... initialized

Initializing position-dependent things.

Density initialized from atomic densities
Creating initial wave functions:
  21 bands from LCAO basis set

  / |      Li  |
 | O|     Li   |
 |  |      Li  |
 |  .--O-------.
 | /    O     /
 O----------*

Positions:
   0 Li     3.494131    3.494131    1.164710    ( 0.0000,  0.0000,  0.0000)
   1 Li     3.494131    3.494131    3.494131    ( 0.0000,  0.0000,  0.0000)
   2 Li     3.494131    1.164710    3.494131    ( 0.0000,  0.0000,  0.0000)
   3 O      0.000000    0.000000    0.000000    ( 0.0000,  0.0000,  0.0000)
   4 O      0.000000    2.329421    2.329421    ( 0.0000,  0.0000,  0.0000)
   5 O      2.329421    0.000000    2.329421    ( 0.0000,  0.0000,  0.0000)
   6 O      2.329421    2.329421    0.000000    ( 0.0000,  0.0000,  0.0000)

Unit cell:
           periodic     x           y           z      points  spacing
  1. axis:    yes    4.658842    0.000000    0.000000    25     0.1864
  2. axis:    yes    0.000000    4.658842    0.000000    25     0.1864
  3. axis:    yes    0.000000    0.000000    4.658842    25     0.1864

  Lengths:   4.658842   4.658842   4.658842
  Angles:   90.000000  90.000000  90.000000

Effective grid spacing dv^(1/3) = 0.1864

     iter     time        total  log10-change:  magmom
                         energy  eigst   dens
iter:   1 14:35:30   -24.189037                  +0.0000
iter:   2 14:36:17   -24.070481  -1.84  -0.94    +0.0000
iter:   3 14:37:07   -23.567762  -1.81  -0.99    +0.0000
iter:   4 14:37:58   -23.565654  -3.02  -1.45    +0.0000
iter:   5 14:38:50   -23.570188c -3.53  -1.49    +0.0000
iter:   6 14:39:52   -23.591814  -2.76  -1.56    +0.0000
iter:   7 14:40:47   -23.596925  -3.47  -1.95    +0.0000
iter:   8 14:41:40   -23.596350c -4.76c -2.11    -0.0000
iter:   9 14:42:27   -23.597480c -4.12c -2.23    -0.0000
iter:  10 14:43:16   -23.597466c -5.60c -2.69    -0.0000
iter:  11 14:44:07   -23.597573c -6.48c -2.72    -0.0000
iter:  12 14:44:55   -23.597175c -4.56c -2.76    -0.0000
iter:  13 14:45:47   -23.597153c -6.30c -3.39c   +0.0000

Converged after 13 iterations.

Dipole moment: (2.033257, 0.681087, 0.681087) |e|*Ang

Total magnetic moment: (0.000000, 0.000000, 0.000000)
Local magnetic moments:
   0 Li ( 0.000000,  0.000000,  0.000000)
   1 Li ( 0.000000,  0.000000, -0.000000)
   2 Li ( 0.000000,  0.000000,  0.000000)
   3 O  ( 0.000000,  0.000000, -0.000000)
   4 O  ( 0.000000,  0.000000,  0.000000)
   5 O  ( 0.000000,  0.000000,  0.000000)
   6 O  ( 0.000000,  0.000000,  0.000000)

Energy contributions relative to reference atoms: (reference = -8771.772665)

Kinetic:        +13.126600
Potential:      -14.011107
External:        +0.000000
XC:             -22.624133
Entropy (-ST):   -0.543173
Local:           +0.183073
Free energy:    -23.868739
Extrapolated:   -23.597153

Spin contamination: 0.000000 electrons
Showing only first 2 kpts
                      Up                     Down
 Kpt  Band  Eigenvalues  Occupancy  Eigenvalues  Occupancy
  0    11     -3.20341    0.95575     -3.20341    0.95575
  0    12     -3.20302    0.95559     -3.20302    0.95559
  0    13     -2.59834    0.04843     -2.59834    0.04843
  0    14     -2.59831    0.04842     -2.59831    0.04842

  1    11     -3.18061    0.94504     -3.18061    0.94504
  1    12     -3.17082    0.93974     -3.17082    0.93974
  1    13     -2.79104    0.25904     -2.79104    0.25904
  1    14     -2.62302    0.06116     -2.62302    0.06116

Fermi level: -2.89614