User:   gabrielbirnbaum@Gabriels-MacBook-Pro.local
Date:   Wed Jul 20 14:23:14 2022
Arch:   x86_64
Pid:    30164
Python: 3.9.13
gpaw:   /Users/gabrielbirnbaum/PycharmProjects/nanolithia/venv/lib/python3.9/site-packages/gpaw
_gpaw:  /Users/gabrielbirnbaum/PycharmProjects/nanolithia/venv/lib/python3.9/site-packages/
        _gpaw.cpython-39-darwin.so
ase:    /Users/gabrielbirnbaum/PycharmProjects/nanolithia/venv/lib/python3.9/site-packages/ase (version 3.22.1)
numpy:  /Users/gabrielbirnbaum/PycharmProjects/nanolithia/venv/lib/python3.9/site-packages/numpy (version 1.23.0)
scipy:  /Users/gabrielbirnbaum/PycharmProjects/nanolithia/venv/lib/python3.9/site-packages/scipy (version 1.8.1)
units:  Angstrom and eV
cores: 1
OpenMP: False
OMP_NUM_THREADS: 1

Input parameters:
  convergence: {density: 0.001,
                eigenstates: 0.0001,
                energy: 0.0002}
  kpts: {gamma: True,
         size: (8, 8, 8)}
  mode: {ecut: 500.0,
         name: pw}
  spinpol: True
  xc: PBE

System changes: positions, numbers, cell, pbc, initial_charges, initial_magmoms

Initialize ...

Li-setup:
  name: Lithium
  id: 830b4218f175192f93f959cfc0aad614
  Z: 3.0
  valence: 1
  core: 2
  charge: 0.0
  file: /Users/gabrielbirnbaum/dft_learning/DIR/gpaw-setups-0.9.20000/Li.PBE.gz
  compensation charges: gauss, rc=0.33, lmax=2
  cutoffs: 1.91(filt), 2.55(core),
  valence states:
                energy  radius
    2s(1.00)    -2.874   1.058
    2p(0.00)    -1.090   1.058
    *s          24.337   1.058

  Using partial waves for Li as LCAO basis

O-setup:
  name: Oxygen
  id: 32ecd46bf208036f09c70b0ec9a88b78
  Z: 8.0
  valence: 6
  core: 2
  charge: 0.0
  file: /Users/gabrielbirnbaum/dft_learning/DIR/gpaw-setups-0.9.20000/O.PBE.gz
  compensation charges: gauss, rc=0.21, lmax=2
  cutoffs: 1.17(filt), 0.83(core),
  valence states:
                energy  radius
    2s(2.00)   -23.961   0.688
    2p(4.00)    -9.029   0.598
    *s           3.251   0.688
    *p          18.182   0.598
    *d           0.000   0.619

  Using partial waves for O as LCAO basis

Reference energy: -8974.560486

Spin-polarized calculation.
Magnetic moment: 0.000000

Convergence criteria:
 Maximum [total energy] change in last 3 cyles: 0.0002 eV / electron
 Maximum integral of absolute [dens]ity change: 0.001 electrons / valence electron
 Maximum integral of absolute [eigenst]ate change: 0.0001 eV^2 / valence electron
 Maximum number of scf [iter]ations: 333
 (Square brackets indicate name in SCF output, whereas a 'c' in
 the SCF output indicates the quantity has converged.)

Symmetries present (total): 8

  ( 1  0  0)  ( 1  0  0)  ( 1  0  0)  ( 1  0  0)  ( 1  0  0)  ( 1  0  0)
  ( 0  1  0)  ( 0  1  0)  ( 0  0  1)  ( 0  0  1)  ( 0  0 -1)  ( 0  0 -1)
  ( 0  0  1)  ( 0  0 -1)  ( 0  1  0)  ( 0 -1  0)  ( 0  1  0)  ( 0 -1  0)

  ( 1  0  0)  ( 1  0  0)
  ( 0 -1  0)  ( 0 -1  0)
  ( 0  0  1)  ( 0  0 -1)

512 k-points: 8 x 8 x 8 Monkhorst-Pack grid + [1/16,1/16,1/16]
75 k-points in the irreducible part of the Brillouin zone
       k-points in crystal coordinates                weights
   0:     0.00000000    0.00000000    0.00000000          1/512
   1:     0.00000000    0.12500000    0.00000000          4/512
   2:     0.00000000    0.12500000    0.12500000          4/512
   3:     0.00000000    0.25000000    0.00000000          4/512
   4:     0.00000000    0.25000000    0.12500000          8/512
   5:     0.00000000    0.25000000    0.25000000          4/512
   6:     0.00000000    0.37500000    0.00000000          4/512
   7:     0.00000000    0.37500000    0.12500000          8/512
   8:     0.00000000    0.37500000    0.25000000          8/512
   9:     0.00000000    0.37500000    0.37500000          4/512
          ...
  74:     0.50000000    0.50000000    0.50000000          1/512

Wave functions: Plane wave expansion
  Cutoff energy: 500.000 eV
  Number of coefficients (min, max): 2512, 2612
  Pulay-stress correction: 0.000000 eV/Ang^3 (de/decut=0.000000)
  Using Numpy's FFT
  ScaLapack parameters: grid=1x1, blocksize=None
  Wavefunction extrapolation:
    Improved wavefunction reuse through dual PAW basis

Occupation numbers: Fermi-Dirac: width=0.1000 eV

Eigensolver
   Davidson(niter=2)

Densities:
  Coarse grid: 25*25*25 grid
  Fine grid: 50*50*50 grid
  Total Charge: 0.000000

Density mixing:
  Method: difference
  Backend: pulay
  Linear mixing parameter: 0.05
  Mixing with 5 old densities
  Damping of long wave oscillations: 50

Hamiltonian:
  XC and Coulomb potentials evaluated on a 50*50*50 grid
  Using the PBE Exchange-Correlation functional
  External potential:
    NoExternalPotential

XC parameters: PBE with 2 nearest neighbor stencil

Total number of cores used: 1

Number of atoms: 8
Number of atomic orbitals: 32
Number of bands in calculation: 21
Number of valence electrons: 28
Bands to converge: occupied

... initialized

Initializing position-dependent things.

Density initialized from atomic densities
Creating initial wave functions:
  21 bands from LCAO basis set

  / |      Li  |
 | O|     Li   |
 |  |      Li  |
 |  .--O-------.
 | /    O Li  /
 O----------*

Positions:
   0 Li     3.494131    1.164710    1.164710    ( 0.0000,  0.0000,  0.0000)
   1 Li     3.494131    3.494131    1.164710    ( 0.0000,  0.0000,  0.0000)
   2 Li     3.494131    3.494131    3.494131    ( 0.0000,  0.0000,  0.0000)
   3 Li     3.494131    1.164710    3.494131    ( 0.0000,  0.0000,  0.0000)
   4 O      0.000000    0.000000    0.000000    ( 0.0000,  0.0000,  0.0000)
   5 O      0.000000    2.329421    2.329421    ( 0.0000,  0.0000,  0.0000)
   6 O      2.329421    0.000000    2.329421    ( 0.0000,  0.0000,  0.0000)
   7 O      2.329421    2.329421    0.000000    ( 0.0000,  0.0000,  0.0000)

Unit cell:
           periodic     x           y           z      points  spacing
  1. axis:    yes    4.658842    0.000000    0.000000    25     0.1864
  2. axis:    yes    0.000000    4.658842    0.000000    25     0.1864
  3. axis:    yes    0.000000    0.000000    4.658842    25     0.1864

  Lengths:   4.658842   4.658842   4.658842
  Angles:   90.000000  90.000000  90.000000

Effective grid spacing dv^(1/3) = 0.1864

     iter     time        total  log10-change:  magmom
                         energy  eigst   dens
iter:   1 14:24:54   -30.297248                  +0.0000
iter:   2 14:25:22   -30.196811  -1.73  -1.06    -0.0000
iter:   3 14:25:49   -29.811072  -1.96  -1.09    -0.0000
iter:   4 14:26:15   -29.735280  -1.94  -1.26    -0.0000
iter:   5 14:26:42   -29.738462  -3.24  -1.44    -0.0000
iter:   6 14:27:09   -29.772023  -2.37  -1.55    -0.0000
iter:   7 14:27:35   -29.768206  -4.24c -2.09    -0.0000
iter:   8 14:28:00   -29.765690  -3.94  -2.14    +0.0000
iter:   9 14:28:27   -29.766681c -4.82c -2.23    -0.0000
iter:  10 14:28:55   -29.765306c -4.22c -2.33    +0.0000
iter:  11 14:29:23   -29.765182c -4.23c -2.54    -0.0000
iter:  12 14:29:50   -29.764857c -5.27c -2.70    +0.0000
iter:  13 14:30:17   -29.764783c -5.95c -2.71    -0.0000
iter:  14 14:30:42   -29.764615c -5.52c -2.76    +0.0000
iter:  15 14:31:09   -29.764680c -6.19c -2.78    -0.0000
iter:  16 14:31:34   -29.764738c -6.66c -2.83    -0.0000
iter:  17 14:31:59   -29.764853c -5.83c -2.88    -0.0000
iter:  18 14:32:23   -29.765052c -5.72c -2.93    -0.0000
iter:  19 14:32:47   -29.765066c -6.89c -3.28c   -0.0000

Converged after 19 iterations.

Dipole moment: (2.615984, 0.000000, 0.000000) |e|*Ang

Total magnetic moment: (0.000000, 0.000000, -0.000000)
Local magnetic moments:
   0 Li ( 0.000000,  0.000000, -0.000000)
   1 Li ( 0.000000,  0.000000, -0.000000)
   2 Li ( 0.000000,  0.000000, -0.000000)
   3 Li ( 0.000000,  0.000000, -0.000000)
   4 O  ( 0.000000,  0.000000, -0.000000)
   5 O  ( 0.000000,  0.000000, -0.000000)
   6 O  ( 0.000000,  0.000000,  0.000000)
   7 O  ( 0.000000,  0.000000,  0.000000)

Energy contributions relative to reference atoms: (reference = -8974.560486)

Kinetic:        +22.267335
Potential:      -21.307275
External:        +0.000000
XC:             -30.658811
Entropy (-ST):   -0.485792
Local:           +0.176581
Free energy:    -30.007962
Extrapolated:   -29.765066

Spin contamination: 0.000000 electrons
Showing only first 2 kpts
                      Up                     Down
 Kpt  Band  Eigenvalues  Occupancy  Eigenvalues  Occupancy
  0    12     -2.61669    0.99412     -2.61669    0.99412
  0    13     -1.82213    0.05654     -1.82213    0.05654
  0    14     -1.82212    0.05654     -1.82212    0.05654
  0    15     -1.79297    0.04285     -1.79297    0.04285

  1    12     -2.53925    0.98734     -2.53925    0.98734
  1    13     -1.89502    0.11051     -1.89502    0.11051
  1    14     -1.84292    0.06871     -1.84292    0.06871
  1    15     -1.80592    0.04849     -1.80592    0.04849

Fermi level: -2.10358