User:   gabrielbirnbaum@Gabriels-MacBook-Pro.local
Date:   Sat Jul 30 17:29:51 2022
Arch:   x86_64
Pid:    32523
Python: 3.9.13
gpaw:   /Users/gabrielbirnbaum/PycharmProjects/nanolithia/venv/lib/python3.9/site-packages/gpaw
_gpaw:  /Users/gabrielbirnbaum/PycharmProjects/nanolithia/venv/lib/python3.9/site-packages/
        _gpaw.cpython-39-darwin.so
ase:    /Users/gabrielbirnbaum/PycharmProjects/nanolithia/venv/lib/python3.9/site-packages/ase (version 3.22.1)
numpy:  /Users/gabrielbirnbaum/PycharmProjects/nanolithia/venv/lib/python3.9/site-packages/numpy (version 1.23.0)
scipy:  /Users/gabrielbirnbaum/PycharmProjects/nanolithia/venv/lib/python3.9/site-packages/scipy (version 1.8.1)
units:  Angstrom and eV
cores: 1
OpenMP: False
OMP_NUM_THREADS: 1

Input parameters:
  convergence: {density: 0.001,
                eigenstates: 0.0001,
                energy: 0.0002}
  kpts: {gamma: True,
         size: (8, 8, 8)}
  mode: {ecut: 500.0,
         name: pw}
  nbands: -10
  spinpol: True
  xc: PBE

System changes: positions, numbers, cell, pbc, initial_charges, initial_magmoms

Initialize ...

Li-setup:
  name: Lithium
  id: 830b4218f175192f93f959cfc0aad614
  Z: 3.0
  valence: 1
  core: 2
  charge: 0.0
  file: /Users/gabrielbirnbaum/dft_learning/DIR/gpaw-setups-0.9.20000/Li.PBE.gz
  compensation charges: gauss, rc=0.33, lmax=2
  cutoffs: 1.91(filt), 2.55(core),
  valence states:
                energy  radius
    2s(1.00)    -2.874   1.058
    2p(0.00)    -1.090   1.058
    *s          24.337   1.058

  Using partial waves for Li as LCAO basis

Reference energy: -405.575640

Spin-polarized calculation.
Magnetic moment: 0.000000

Convergence criteria:
 Maximum [total energy] change in last 3 cyles: 0.0002 eV / electron
 Maximum integral of absolute [dens]ity change: 0.001 electrons / valence electron
 Maximum integral of absolute [eigenst]ate change: 0.0001 eV^2 / valence electron
 Maximum number of scf [iter]ations: 333
 (Square brackets indicate name in SCF output, whereas a 'c' in
 the SCF output indicates the quantity has converged.)

Symmetries present (total): 48

  ( 1  0  0)  ( 1  0  0)  ( 1  0  0)  ( 1  0  0)  ( 1  0  0)  ( 1  0  0)
  ( 0  1  0)  ( 0  1  0)  ( 0  0  1)  ( 0  0  1)  ( 0  0 -1)  ( 0  0 -1)
  ( 0  0  1)  ( 0  0 -1)  ( 0  1  0)  ( 0 -1  0)  ( 0  1  0)  ( 0 -1  0)

  ( 1  0  0)  ( 1  0  0)  ( 0  1  0)  ( 0  1  0)  ( 0  1  0)  ( 0  1  0)
  ( 0 -1  0)  ( 0 -1  0)  ( 1  0  0)  ( 1  0  0)  ( 0  0  1)  ( 0  0  1)
  ( 0  0  1)  ( 0  0 -1)  ( 0  0  1)  ( 0  0 -1)  ( 1  0  0)  (-1  0  0)

  ( 0  1  0)  ( 0  1  0)  ( 0  1  0)  ( 0  1  0)  ( 0  0  1)  ( 0  0  1)
  ( 0  0 -1)  ( 0  0 -1)  (-1  0  0)  (-1  0  0)  ( 1  0  0)  ( 1  0  0)
  ( 1  0  0)  (-1  0  0)  ( 0  0  1)  ( 0  0 -1)  ( 0  1  0)  ( 0 -1  0)

  ( 0  0  1)  ( 0  0  1)  ( 0  0  1)  ( 0  0  1)  ( 0  0  1)  ( 0  0  1)
  ( 0  1  0)  ( 0  1  0)  ( 0 -1  0)  ( 0 -1  0)  (-1  0  0)  (-1  0  0)
  ( 1  0  0)  (-1  0  0)  ( 1  0  0)  (-1  0  0)  ( 0  1  0)  ( 0 -1  0)

  ( 0  0 -1)  ( 0  0 -1)  ( 0  0 -1)  ( 0  0 -1)  ( 0  0 -1)  ( 0  0 -1)
  ( 1  0  0)  ( 1  0  0)  ( 0  1  0)  ( 0  1  0)  ( 0 -1  0)  ( 0 -1  0)
  ( 0  1  0)  ( 0 -1  0)  ( 1  0  0)  (-1  0  0)  ( 1  0  0)  (-1  0  0)

  ( 0  0 -1)  ( 0  0 -1)  ( 0 -1  0)  ( 0 -1  0)  ( 0 -1  0)  ( 0 -1  0)
  (-1  0  0)  (-1  0  0)  ( 1  0  0)  ( 1  0  0)  ( 0  0  1)  ( 0  0  1)
  ( 0  1  0)  ( 0 -1  0)  ( 0  0  1)  ( 0  0 -1)  ( 1  0  0)  (-1  0  0)

  ( 0 -1  0)  ( 0 -1  0)  ( 0 -1  0)  ( 0 -1  0)  (-1  0  0)  (-1  0  0)
  ( 0  0 -1)  ( 0  0 -1)  (-1  0  0)  (-1  0  0)  ( 0  1  0)  ( 0  1  0)
  ( 1  0  0)  (-1  0  0)  ( 0  0  1)  ( 0  0 -1)  ( 0  0  1)  ( 0  0 -1)

  (-1  0  0)  (-1  0  0)  (-1  0  0)  (-1  0  0)  (-1  0  0)  (-1  0  0)
  ( 0  0  1)  ( 0  0  1)  ( 0  0 -1)  ( 0  0 -1)  ( 0 -1  0)  ( 0 -1  0)
  ( 0  1  0)  ( 0 -1  0)  ( 0  1  0)  ( 0 -1  0)  ( 0  0  1)  ( 0  0 -1)

512 k-points: 8 x 8 x 8 Monkhorst-Pack grid + [1/16,1/16,1/16]
35 k-points in the irreducible part of the Brillouin zone
       k-points in crystal coordinates                weights
   0:     0.00000000    0.00000000    0.00000000          1/512
   1:     0.12500000    0.00000000    0.00000000          6/512
   2:     0.12500000    0.12500000    0.00000000         12/512
   3:     0.12500000    0.12500000    0.12500000          8/512
   4:     0.25000000    0.00000000    0.00000000          6/512
   5:     0.25000000    0.12500000    0.00000000         24/512
   6:     0.25000000    0.12500000    0.12500000         24/512
   7:     0.25000000    0.25000000    0.00000000         12/512
   8:     0.25000000    0.25000000    0.12500000         24/512
   9:     0.25000000    0.25000000    0.25000000          8/512
          ...
  34:     0.50000000    0.50000000    0.50000000          1/512

Wave functions: Plane wave expansion
  Cutoff energy: 500.000 eV
  Number of coefficients (min, max): 1045, 1110
  Pulay-stress correction: 0.000000 eV/Ang^3 (de/decut=0.000000)
  Using Numpy's FFT
  ScaLapack parameters: grid=1x1, blocksize=None
  Wavefunction extrapolation:
    Improved wavefunction reuse through dual PAW basis

Occupation numbers: Fermi-Dirac: width=0.1000 eV

Eigensolver
   Davidson(niter=2)

Densities:
  Coarse grid: 20*20*20 grid
  Fine grid: 40*40*40 grid
  Total Charge: 0.000000

Density mixing:
  Method: difference
  Backend: pulay
  Linear mixing parameter: 0.05
  Mixing with 5 old densities
  Damping of long wave oscillations: 50

Hamiltonian:
  XC and Coulomb potentials evaluated on a 40*40*40 grid
  Using the PBE Exchange-Correlation functional
  External potential:
    NoExternalPotential

XC parameters: PBE with 2 nearest neighbor stencil

Total number of cores used: 1

Number of atoms: 2
Number of atomic orbitals: 8
Number of bands in calculation: 11
Number of valence electrons: 2
Bands to converge: occupied

... initialized

Initializing position-dependent things.

Density initialized from atomic densities
Creating initial wave functions:
  8 bands from LCAO basis set
  3 bands from random numbers

 | |   Li   |
 Li-------*

Positions:
   0 Li     0.000000    0.000000    0.000000    ( 0.0000,  0.0000,  0.0000)
   1 Li     1.755000    1.755000    1.755000    ( 0.0000,  0.0000,  0.0000)

Unit cell:
           periodic     x           y           z      points  spacing
  1. axis:    yes    3.510000    0.000000    0.000000    20     0.1755
  2. axis:    yes    0.000000    3.510000    0.000000    20     0.1755
  3. axis:    yes    0.000000    0.000000    3.510000    20     0.1755

  Lengths:   3.510000   3.510000   3.510000
  Angles:   90.000000  90.000000  90.000000

Effective grid spacing dv^(1/3) = 0.1755

     iter     time        total  log10-change:  magmom
                         energy  eigst   dens
iter:   1 17:30:02    -3.820818                  +0.0000
iter:   2 17:30:07    -3.819409  -2.07  -1.27    -0.0000
iter:   3 17:30:13    -3.962456  -2.07  -1.27    +0.0000
iter:   4 17:30:18    -3.800650  -2.22  -0.99    +0.0000
iter:   5 17:30:24    -3.800401  -4.25c -2.89    +0.0000
iter:   6 17:30:29    -3.800358c -5.76c -2.42    +0.0000
iter:   7 17:30:33    -3.800311c -5.26c -2.80    +0.0000
iter:   8 17:30:39    -3.800311c -6.75c -3.39c   +0.0000

Converged after 8 iterations.

Dipole moment: (-0.000000, -0.000000, -0.000000) |e|*Ang

Total magnetic moment: (0.000000, 0.000000, 0.000001)
Local magnetic moments:
   0 Li ( 0.000000,  0.000000, -0.000000)
   1 Li ( 0.000000,  0.000000,  0.000000)

Energy contributions relative to reference atoms: (reference = -405.575640)

Kinetic:         +3.033158
Potential:       -2.723293
External:        +0.000000
XC:              -4.080494
Entropy (-ST):   -0.031031
Local:           -0.014166
Free energy:     -3.815826
Extrapolated:    -3.800311

Spin contamination: 0.000000 electrons
Showing only first 2 kpts
                      Up                     Down
 Kpt  Band  Eigenvalues  Occupancy  Eigenvalues  Occupancy
  0     0     -3.30260    1.00000     -3.30260    1.00000
  0     1      5.48341    0.00000      5.48341    0.00000
  0     2      5.48341    0.00000      5.48341    0.00000

  1     0     -3.15759    1.00000     -3.15759    1.00000
  1     1      3.99811    0.00000      3.99811    0.00000
  1     2      5.66765    0.00000      5.66765    0.00000

Fermi level: 0.21087

No gap
Stress tensor:
     0.005132     0.000000     0.000000
     0.000000     0.005132     0.000000
     0.000000     0.000000     0.005132
System changes: cell, positions

[...]

 | |   Li   |
 Li-------*

[...]

 | |  Li   |
 Li------*

[...]

No gap
Stress tensor:
    -0.000303     0.000000     0.000000
     0.000000    -0.000303     0.000000
     0.000000     0.000000    -0.000303
System changes: cell, positions

Initialize ...

Li-setup:
  name: Lithium
  id: 830b4218f175192f93f959cfc0aad614
  Z: 3.0
  valence: 1
  core: 2
  charge: 0.0
  file: /Users/gabrielbirnbaum/dft_learning/DIR/gpaw-setups-0.9.20000/Li.PBE.gz
  compensation charges: gauss, rc=0.33, lmax=2
  cutoffs: 1.91(filt), 2.55(core),
  valence states:
                energy  radius
    2s(1.00)    -2.874   1.058
    2p(0.00)    -1.090   1.058
    *s          24.337   1.058

  Using partial waves for Li as LCAO basis

Reference energy: -405.575640

Spin-polarized calculation.
Magnetic moment: 0.000000

Convergence criteria:
 Maximum [total energy] change in last 3 cyles: 0.0002 eV / electron
 Maximum integral of absolute [dens]ity change: 0.001 electrons / valence electron
 Maximum integral of absolute [eigenst]ate change: 0.0001 eV^2 / valence electron
 Maximum number of scf [iter]ations: 333
 (Square brackets indicate name in SCF output, whereas a 'c' in
 the SCF output indicates the quantity has converged.)

Symmetries present (total): 48

  ( 1  0  0)  ( 1  0  0)  ( 1  0  0)  ( 1  0  0)  ( 1  0  0)  ( 1  0  0)
  ( 0  1  0)  ( 0  1  0)  ( 0  0  1)  ( 0  0  1)  ( 0  0 -1)  ( 0  0 -1)
  ( 0  0  1)  ( 0  0 -1)  ( 0  1  0)  ( 0 -1  0)  ( 0  1  0)  ( 0 -1  0)

  ( 1  0  0)  ( 1  0  0)  ( 0  1  0)  ( 0  1  0)  ( 0  1  0)  ( 0  1  0)
  ( 0 -1  0)  ( 0 -1  0)  ( 1  0  0)  ( 1  0  0)  ( 0  0  1)  ( 0  0  1)
  ( 0  0  1)  ( 0  0 -1)  ( 0  0  1)  ( 0  0 -1)  ( 1  0  0)  (-1  0  0)

  ( 0  1  0)  ( 0  1  0)  ( 0  1  0)  ( 0  1  0)  ( 0  0  1)  ( 0  0  1)
  ( 0  0 -1)  ( 0  0 -1)  (-1  0  0)  (-1  0  0)  ( 1  0  0)  ( 1  0  0)
  ( 1  0  0)  (-1  0  0)  ( 0  0  1)  ( 0  0 -1)  ( 0  1  0)  ( 0 -1  0)

  ( 0  0  1)  ( 0  0  1)  ( 0  0  1)  ( 0  0  1)  ( 0  0  1)  ( 0  0  1)
  ( 0  1  0)  ( 0  1  0)  ( 0 -1  0)  ( 0 -1  0)  (-1  0  0)  (-1  0  0)
  ( 1  0  0)  (-1  0  0)  ( 1  0  0)  (-1  0  0)  ( 0  1  0)  ( 0 -1  0)

  ( 0  0 -1)  ( 0  0 -1)  ( 0  0 -1)  ( 0  0 -1)  ( 0  0 -1)  ( 0  0 -1)
  ( 1  0  0)  ( 1  0  0)  ( 0  1  0)  ( 0  1  0)  ( 0 -1  0)  ( 0 -1  0)
  ( 0  1  0)  ( 0 -1  0)  ( 1  0  0)  (-1  0  0)  ( 1  0  0)  (-1  0  0)

  ( 0  0 -1)  ( 0  0 -1)  ( 0 -1  0)  ( 0 -1  0)  ( 0 -1  0)  ( 0 -1  0)
  (-1  0  0)  (-1  0  0)  ( 1  0  0)  ( 1  0  0)  ( 0  0  1)  ( 0  0  1)
  ( 0  1  0)  ( 0 -1  0)  ( 0  0  1)  ( 0  0 -1)  ( 1  0  0)  (-1  0  0)

  ( 0 -1  0)  ( 0 -1  0)  ( 0 -1  0)  ( 0 -1  0)  (-1  0  0)  (-1  0  0)
  ( 0  0 -1)  ( 0  0 -1)  (-1  0  0)  (-1  0  0)  ( 0  1  0)  ( 0  1  0)
  ( 1  0  0)  (-1  0  0)  ( 0  0  1)  ( 0  0 -1)  ( 0  0  1)  ( 0  0 -1)

  (-1  0  0)  (-1  0  0)  (-1  0  0)  (-1  0  0)  (-1  0  0)  (-1  0  0)
  ( 0  0  1)  ( 0  0  1)  ( 0  0 -1)  ( 0  0 -1)  ( 0 -1  0)  ( 0 -1  0)
  ( 0  1  0)  ( 0 -1  0)  ( 0  1  0)  ( 0 -1  0)  ( 0  0  1)  ( 0  0 -1)

512 k-points: 8 x 8 x 8 Monkhorst-Pack grid + [1/16,1/16,1/16]
35 k-points in the irreducible part of the Brillouin zone
       k-points in crystal coordinates                weights
   0:     0.00000000    0.00000000    0.00000000          1/512
   1:     0.12500000    0.00000000    0.00000000          6/512
   2:     0.12500000    0.12500000    0.00000000         12/512
   3:     0.12500000    0.12500000    0.12500000          8/512
   4:     0.25000000    0.00000000    0.00000000          6/512
   5:     0.25000000    0.12500000    0.00000000         24/512
   6:     0.25000000    0.12500000    0.12500000         24/512
   7:     0.25000000    0.25000000    0.00000000         12/512
   8:     0.25000000    0.25000000    0.12500000         24/512
   9:     0.25000000    0.25000000    0.25000000          8/512
          ...
  34:     0.50000000    0.50000000    0.50000000          1/512

Wave functions: Plane wave expansion
  Cutoff energy: 500.000 eV
  Number of coefficients (min, max): 1013, 1064
  Pulay-stress correction: 0.000000 eV/Ang^3 (de/decut=0.000000)
  Using Numpy's FFT
  ScaLapack parameters: grid=1x1, blocksize=None
  Wavefunction extrapolation:
    Improved wavefunction reuse through dual PAW basis

Occupation numbers: Fermi-Dirac: width=0.1000 eV

Eigensolver
   Davidson(niter=2)

Densities:
  Coarse grid: 18*18*18 grid
  Fine grid: 36*36*36 grid
  Total Charge: 0.000000

Density mixing:
  Method: difference
  Backend: pulay
  Linear mixing parameter: 0.05
  Mixing with 5 old densities
  Damping of long wave oscillations: 50

Hamiltonian:
  XC and Coulomb potentials evaluated on a 36*36*36 grid
  Using the PBE Exchange-Correlation functional
  External potential:
    NoExternalPotential

XC parameters: PBE with 2 nearest neighbor stencil

Total number of cores used: 1

Number of atoms: 2
Number of atomic orbitals: 8
Number of bands in calculation: 11
Number of valence electrons: 2
Bands to converge: occupied

... initialized

Initializing position-dependent things.

Density initialized from atomic densities
Creating initial wave functions:
  8 bands from LCAO basis set
  3 bands from random numbers

 | |  Li   |
 Li------*

Positions:
   0 Li     0.000000    0.000000    0.000000    ( 0.0000,  0.0000,  0.0000)
   1 Li     1.717420    1.717420    1.717420    ( 0.0000,  0.0000,  0.0000)

Unit cell:
           periodic     x           y           z      points  spacing
  1. axis:    yes    3.434840    0.000000    0.000000    18     0.1908
  2. axis:    yes    0.000000    3.434840    0.000000    18     0.1908
  3. axis:    yes    0.000000    0.000000    3.434840    18     0.1908

  Lengths:   3.434840   3.434840   3.434840
  Angles:   90.000000  90.000000  90.000000

Effective grid spacing dv^(1/3) = 0.1908

     iter     time        total  log10-change:  magmom
                         energy  eigst   dens
iter:   1 17:31:58    -3.834859                  +0.0000
iter:   2 17:32:03    -3.832568  -1.98  -1.25    -0.0000
iter:   3 17:32:09    -3.992202  -2.68  -1.25    -0.0000
iter:   4 17:32:12    -3.808172  -3.07  -0.92    -0.0000
iter:   5 17:32:18    -3.808088  -5.40c -2.44    +0.0000
iter:   6 17:32:23    -3.807989c -4.97c -2.38    +0.0000
iter:   7 17:32:27    -3.807989c -6.62c -3.86c   +0.0000

Converged after 7 iterations.

Dipole moment: (0.000000, 0.000000, 0.000000) |e|*Ang

Total magnetic moment: (0.000000, 0.000000, 0.000000)
Local magnetic moments:
   0 Li ( 0.000000,  0.000000, -0.000000)
   1 Li ( 0.000000,  0.000000,  0.000000)

Energy contributions relative to reference atoms: (reference = -405.575640)

Kinetic:         +3.812012
Potential:       -3.238295
External:        +0.000000
XC:              -4.350658
Entropy (-ST):   -0.030295
Local:           -0.015900
Free energy:     -3.823136
Extrapolated:    -3.807989

Spin contamination: 0.000000 electrons
Showing only first 2 kpts
                      Up                     Down
 Kpt  Band  Eigenvalues  Occupancy  Eigenvalues  Occupancy
  0     0     -3.22859    1.00000     -3.22859    1.00000
  0     1      5.87438    0.00000      5.87438    0.00000
  0     2      5.87438    0.00000      5.87438    0.00000

  1     0     -3.08005    1.00000     -3.08005    1.00000
  1     1      4.31721    0.00000      4.31721    0.00000
  1     2      6.06716    0.00000      6.06716    0.00000

Fermi level: 0.37066

No gap
Stress tensor:
     0.000020     0.000000     0.000000
     0.000000     0.000020     0.000000
     0.000000     0.000000     0.000020
Timing:                              incl.     excl.
Hamiltonian:                         0.385     0.005   0.0% |
 Atomic:                             0.208     0.001   0.0% |
  XC Correction:                     0.206     0.206   0.1% |
 Calculate atomic Hamiltonians:      0.008     0.008   0.0% |
 Communicate:                        0.000     0.000   0.0% |
 Initialize Hamiltonian:             0.000     0.000   0.0% |
 Poisson:                            0.004     0.004   0.0% |
 XC 3D grid:                         0.160     0.160   0.1% |
LCAO initialization:                21.695     0.264   0.2% |
 LCAO eigensolver:                  18.414     0.008   0.0% |
  Calculate projections:             0.005     0.005   0.0% |
  DenseAtomicCorrection:             0.017     0.017   0.0% |
  Distribute overlap matrix:         0.005     0.005   0.0% |
  Orbital Layouts:                   0.028     0.028   0.0% |
  Potential matrix:                 18.200    18.200  11.6% |----|
  Sum over cells:                    0.151     0.151   0.1% |
 LCAO to grid:                       2.565     2.565   1.6% ||
 Set positions (LCAO WFS):           0.451     0.077   0.0% |
  Basic WFS set positions:           0.008     0.008   0.0% |
  Basis functions set positions:     0.000     0.000   0.0% |
  P tci:                             0.125     0.125   0.1% |
  ST tci:                            0.204     0.204   0.1% |
  mktci:                             0.037     0.037   0.0% |
PWDescriptor:                        0.025     0.025   0.0% |
SCF-cycle:                         131.162     0.278   0.2% |
 Davidson:                         115.571     3.270   2.1% ||
  Apply H:                          23.089    22.885  14.6% |-----|
   HMM T:                            0.204     0.204   0.1% |
  Subspace diag:                    29.133     0.094   0.1% |
   calc_h_matrix:                   28.537     0.382   0.2% |
    Apply H:                        28.155    27.943  17.8% |------|
     HMM T:                          0.212     0.212   0.1% |
   diagonalize:                      0.234     0.234   0.1% |
   rotate_psi:                       0.269     0.269   0.2% |
  calc. matrices:                   58.857     7.317   4.7% |-|
   Apply H:                         51.541    51.141  32.6% |------------|
    HMM T:                           0.399     0.399   0.3% |
  diagonalize:                       0.786     0.786   0.5% |
  rotate_psi:                        0.436     0.436   0.3% |
 Density:                           12.489     0.000   0.0% |
  Atomic density matrices:           0.065     0.065   0.0% |
  Mix:                               0.225     0.225   0.1% |
  Multipole moments:                 0.002     0.002   0.0% |
  Pseudo density:                   12.196    11.819   7.5% |--|
   Symmetrize density:               0.378     0.378   0.2% |
 Hamiltonian:                        2.632     0.024   0.0% |
  Atomic:                            1.521     0.010   0.0% |
   XC Correction:                    1.511     1.511   1.0% |
  Calculate atomic Hamiltonians:     0.059     0.059   0.0% |
  Communicate:                       0.000     0.000   0.0% |
  Poisson:                           0.014     0.014   0.0% |
  XC 3D grid:                        1.014     1.014   0.6% |
 Orthonormalize:                     0.192     0.013   0.0% |
  calc_s_matrix:                     0.103     0.103   0.1% |
  inverse-cholesky:                  0.014     0.014   0.0% |
  projections:                       0.045     0.045   0.0% |
  rotate_psi_s:                      0.017     0.017   0.0% |
Set symmetry:                        0.117     0.117   0.1% |
Stress:                              2.681     0.000   0.0% |
 Stress tensor:                      2.681     2.681   1.7% ||
Other:                               0.848     0.848   0.5% |
Total:                                       156.913 100.0%