User:   gabrielbirnbaum@Gabriels-MacBook-Pro.local
Date:   Mon Jul 25 11:11:02 2022
Arch:   x86_64
Pid:    69738
Python: 3.9.13
gpaw:   /Users/gabrielbirnbaum/PycharmProjects/nanolithia/venv/lib/python3.9/site-packages/gpaw
_gpaw:  /Users/gabrielbirnbaum/PycharmProjects/nanolithia/venv/lib/python3.9/site-packages/
        _gpaw.cpython-39-darwin.so
ase:    /Users/gabrielbirnbaum/PycharmProjects/nanolithia/venv/lib/python3.9/site-packages/ase (version 3.22.1)
numpy:  /Users/gabrielbirnbaum/PycharmProjects/nanolithia/venv/lib/python3.9/site-packages/numpy (version 1.23.0)
scipy:  /Users/gabrielbirnbaum/PycharmProjects/nanolithia/venv/lib/python3.9/site-packages/scipy (version 1.8.1)
units:  Angstrom and eV
cores: 1
OpenMP: False
OMP_NUM_THREADS: 1

Input parameters:
  convergence: {density: 0.001,
                eigenstates: 0.0001,
                energy: 0.0002}
  kpts: {gamma: True,
         size: (10, 10, 10)}
  mode: {ecut: 575.0,
         name: pw}
  setups: {O: :p,0.76,0}
  spinpol: False

System changes: positions, numbers, cell, pbc, initial_charges, initial_magmoms

Initialize ...

Li-setup:
  name: Lithium
  id: b73562207f97a71b6967473b66fe8b65
  Z: 3.0
  valence: 1
  core: 2
  charge: 0.0
  file: /Users/gabrielbirnbaum/dft_learning/DIR/gpaw-setups-0.9.20000/Li.LDA.gz
  compensation charges: gauss, rc=0.33, lmax=2
  cutoffs: 1.91(filt), 2.55(core),
  valence states:
                energy  radius
    2s(1.00)    -2.874   1.058
    2p(0.00)    -1.126   1.058
    *s          24.338   1.058

  Using partial waves for Li as LCAO basis

O-setup:
  name: Oxygen
  id: 9b9d51c344dea68c822856295a461509
  Z: 8.0
  valence: 6
  core: 2
  charge: 0.0
  Hubbard U: 0.760000 eV (l=1, scale=False)
  file: /Users/gabrielbirnbaum/dft_learning/DIR/gpaw-setups-0.9.20000/O.LDA.gz
  compensation charges: gauss, rc=0.21, lmax=2
  cutoffs: 1.17(filt), 0.83(core),
  valence states:
                energy  radius
    2s(2.00)   -23.752   0.688
    2p(4.00)    -9.195   0.598
    *s           3.459   0.688
    *p          18.016   0.598
    *d           0.000   0.619

  Using partial waves for O as LCAO basis

Reference energy: -8910.067456

Spin-paired calculation

Convergence criteria:
 Maximum [total energy] change in last 3 cyles: 0.0002 eV / electron
 Maximum integral of absolute [dens]ity change: 0.001 electrons / valence electron
 Maximum integral of absolute [eigenst]ate change: 0.0001 eV^2 / valence electron
 Maximum number of scf [iter]ations: 333
 (Square brackets indicate name in SCF output, whereas a 'c' in
 the SCF output indicates the quantity has converged.)

Symmetries present (total): 4

  ( 1  0  0)  ( 0  1  0)  ( 0 -1  0)  (-1  0  0)
  ( 0  1  0)  ( 1  0  0)  (-1  0  0)  ( 0 -1  0)
  ( 0  0  1)  ( 0  0 -1)  ( 0  0  1)  ( 0  0 -1)

1000 k-points: 10 x 10 x 10 Monkhorst-Pack grid + [1/20,1/20,1/20]
282 k-points in the irreducible part of the Brillouin zone
       k-points in crystal coordinates                weights
   0:     0.00000000    0.00000000    0.00000000          1/1000
   1:     0.00000000    0.00000000    0.10000000          2/1000
   2:     0.00000000    0.00000000    0.20000000          2/1000
   3:     0.00000000    0.00000000    0.30000000          2/1000
   4:     0.00000000    0.00000000    0.40000000          2/1000
   5:     0.00000000    0.00000000    0.50000000          1/1000
   6:     0.10000000   -0.10000000   -0.40000000          2/1000
   7:     0.10000000   -0.10000000   -0.30000000          2/1000
   8:     0.10000000   -0.10000000   -0.20000000          2/1000
   9:     0.10000000   -0.10000000   -0.10000000          2/1000
          ...
 281:     0.50000000    0.50000000    0.50000000          1/1000

Wave functions: Plane wave expansion
  Cutoff energy: 575.000 eV
  Number of coefficients (min, max): 2096, 2142
  Pulay-stress correction: 0.000000 eV/Ang^3 (de/decut=0.000000)
  Using Numpy's FFT
  ScaLapack parameters: grid=1x1, blocksize=None
  Wavefunction extrapolation:
    Improved wavefunction reuse through dual PAW basis

Occupation numbers: Fermi-Dirac: width=0.1000 eV

Eigensolver
   Davidson(niter=2)

Densities:
  Coarse grid: 18*18*45 grid
  Fine grid: 36*36*90 grid
  Total Charge: 0.000000

Density mixing:
  Method: separate
  Backend: pulay
  Linear mixing parameter: 0.05
  Mixing with 5 old densities
  Damping of long wave oscillations: 50

Hamiltonian:
  XC and Coulomb potentials evaluated on a 36*36*90 grid
  Using the LDA Exchange-Correlation functional
  External potential:
    NoExternalPotential

Total number of cores used: 1

Number of atoms: 8
Number of atomic orbitals: 32
Number of bands in calculation: 21
Number of valence electrons: 28
Bands to converge: occupied

... initialized

Initializing position-dependent things.

Density initialized from atomic densities
Creating initial wave functions:
  21 bands from LCAO basis set

             O

           LiO

[...]

           O Li

           O
        Li

Positions:
   0 Li     0.000000    0.000000    3.851761    ( 0.0000,  0.0000,  0.0000)
   1 Li     0.000000    0.000000    0.000000    ( 0.0000,  0.0000,  0.0000)
   2 Li     1.590181   -0.918093    5.777642    ( 0.0000,  0.0000,  0.0000)
   3 Li     1.590181    0.918093    1.925881    ( 0.0000,  0.0000,  0.0000)
   4 O      1.590181   -0.918093    1.150213    ( 0.0000,  0.0000,  0.0000)
   5 O      1.590181    0.918093    5.001974    ( 0.0000,  0.0000,  0.0000)
   6 O      1.590181    0.918093    6.553309    ( 0.0000,  0.0000,  0.0000)
   7 O      1.590181   -0.918093    2.701548    ( 0.0000,  0.0000,  0.0000)

Unit cell:
           periodic     x           y           z      points  spacing
  1. axis:    yes    1.590181   -2.754274    0.000000    18     0.1530
  2. axis:    yes    1.590181    2.754274    0.000000    18     0.1530
  3. axis:    yes    0.000000    0.000000    7.703522    45     0.1712

  Lengths:   3.180362   3.180362   7.703522
  Angles:   90.000000  90.000000 119.999995

Effective grid spacing dv^(1/3) = 0.1666

     iter     time        total  log10-change:
                         energy  eigst   dens
iter:   1 11:12:22   -42.127300
iter:   2 11:13:09   -41.944157  -1.66  -0.90
iter:   3 11:13:53   -41.045978  -1.40  -0.94
iter:   4 11:14:39   -41.297972  -1.38  -1.28
iter:   5 11:15:22   -40.885890  -1.54  -1.35
iter:   6 11:16:07   -40.886551  -3.35  -2.13
iter:   7 11:16:51   -40.918855  -2.34  -2.14
iter:   8 11:17:36   -40.881508  -2.77  -1.85
iter:   9 11:18:25   -40.880958  -4.12c -2.47
iter:  10 11:19:15   -40.881600c -3.43  -2.58
iter:  11 11:20:12   -40.880364c -4.38c -2.63
iter:  12 11:21:10   -40.880305c -4.99c -3.25c

Converged after 12 iterations.

Dipole moment: (0.000000, -0.000000, -0.000000) |e|*Ang

Energy contributions relative to reference atoms: (reference = -8910.067456)

Kinetic:        +36.295444
Potential:      -35.011696
External:        +0.000000
XC:             -42.692869
Entropy (-ST):   -0.000013
Local:           +0.528823
Free energy:    -40.880311
Extrapolated:   -40.880305

Showing only first 2 kpts
 Kpt  Band  Eigenvalues  Occupancy
  0    12      2.29749    1.99997
  0    13      2.29752    1.99997
  0    14      4.25471    0.00048
  0    15      6.49355    0.00000

  1    12      2.29182    1.99998
  1    13      2.29185    1.99997
  1    14      4.31569    0.00026
  1    15      6.43272    0.00000

Fermi level: 3.42081

Gap: 1.943 eV
Transition (v -> c):
  (s=0, k=20, n=13, [0.10, 0.00, 0.00]) -> (s=0, k=0, n=14, [0.00, 0.00, 0.00])
Timing:                              incl.     excl.
Hamiltonian:                         0.067     0.001   0.0% |
 Atomic:                             0.044     0.002   0.0% |
  XC Correction:                     0.042     0.042   0.0% |
 Calculate atomic Hamiltonians:      0.011     0.011   0.0% |
 Communicate:                        0.000     0.000   0.0% |
 Initialize Hamiltonian:             0.000     0.000   0.0% |
 Poisson:                            0.000     0.000   0.0% |
 XC 3D grid:                         0.011     0.011   0.0% |
LCAO initialization:                38.956     0.056   0.0% |
 LCAO eigensolver:                   1.218     0.009   0.0% |
  Calculate projections:             0.018     0.018   0.0% |
  DenseAtomicCorrection:             0.060     0.060   0.0% |
  Distribute overlap matrix:         0.006     0.006   0.0% |
  Orbital Layouts:                   0.131     0.131   0.0% |
  Potential matrix:                  0.736     0.736   0.1% |
  Sum over cells:                    0.258     0.258   0.0% |
 LCAO to grid:                      31.935    31.935   5.2% |-|
 Set positions (LCAO WFS):           5.746     0.717   0.1% |
  Basic WFS set positions:           0.001     0.001   0.0% |
  Basis functions set positions:     0.000     0.000   0.0% |
  P tci:                             2.093     2.093   0.3% |
  ST tci:                            2.896     2.896   0.5% |
  mktci:                             0.039     0.039   0.0% |
PWDescriptor:                        0.214     0.214   0.0% |
SCF-cycle:                         567.556     0.916   0.2% |
 Davidson:                         519.355    40.038   6.6% |--|
  Apply H:                         107.430   105.998  17.4% |------|
   HMM T:                            1.432     1.432   0.2% |
  Subspace diag:                   130.324     0.252   0.0% |
   calc_h_matrix:                  126.691     2.314   0.4% |
    Apply H:                       124.377   123.176  20.2% |-------|
     HMM T:                          1.202     1.202   0.2% |
   diagonalize:                      1.024     1.024   0.2% |
   rotate_psi:                       2.357     2.357   0.4% |
  calc. matrices:                  231.309    18.125   3.0% ||
   Apply H:                        213.184   209.865  34.5% |-------------|
    HMM T:                           3.320     3.320   0.5% |
  diagonalize:                       5.727     5.727   0.9% |
  rotate_psi:                        4.527     4.527   0.7% |
 Density:                           45.303     0.000   0.0% |
  Atomic density matrices:           0.370     0.370   0.1% |
  Mix:                               0.295     0.295   0.0% |
  Multipole moments:                 0.002     0.002   0.0% |
  Pseudo density:                   44.637    44.621   7.3% |--|
   Symmetrize density:               0.016     0.016   0.0% |
 Hamiltonian:                        1.072     0.019   0.0% |
  Atomic:                            0.702     0.034   0.0% |
   XC Correction:                    0.668     0.668   0.1% |
  Calculate atomic Hamiltonians:     0.172     0.172   0.0% |
  Communicate:                       0.000     0.000   0.0% |
  Poisson:                           0.004     0.004   0.0% |
  XC 3D grid:                        0.176     0.176   0.0% |
 Orthonormalize:                     0.910     0.019   0.0% |
  calc_s_matrix:                     0.336     0.336   0.1% |
  inverse-cholesky:                  0.023     0.023   0.0% |
  projections:                       0.446     0.446   0.1% |
  rotate_psi_s:                      0.085     0.085   0.0% |
Set symmetry:                        0.022     0.022   0.0% |
Other:                               1.812     1.812   0.3% |
Total:                                       608.627 100.0%