User:   gabrielbirnbaum@Gabriels-MacBook-Pro.local
Date:   Mon Jul 25 10:49:57 2022
Arch:   x86_64
Pid:    69738
Python: 3.9.13
gpaw:   /Users/gabrielbirnbaum/PycharmProjects/nanolithia/venv/lib/python3.9/site-packages/gpaw
_gpaw:  /Users/gabrielbirnbaum/PycharmProjects/nanolithia/venv/lib/python3.9/site-packages/
        _gpaw.cpython-39-darwin.so
ase:    /Users/gabrielbirnbaum/PycharmProjects/nanolithia/venv/lib/python3.9/site-packages/ase (version 3.22.1)
numpy:  /Users/gabrielbirnbaum/PycharmProjects/nanolithia/venv/lib/python3.9/site-packages/numpy (version 1.23.0)
scipy:  /Users/gabrielbirnbaum/PycharmProjects/nanolithia/venv/lib/python3.9/site-packages/scipy (version 1.8.1)
units:  Angstrom and eV
cores: 1
OpenMP: False
OMP_NUM_THREADS: 1

Input parameters:
  convergence: {density: 0.001,
                eigenstates: 0.0001,
                energy: 0.0002}
  kpts: {gamma: True,
         size: (6, 6, 6)}
  mode: {ecut: 575.0,
         name: pw}
  setups: {O: :p,0.76,0}
  spinpol: False

System changes: positions, numbers, cell, pbc, initial_charges, initial_magmoms

Initialize ...

Li-setup:
  name: Lithium
  id: b73562207f97a71b6967473b66fe8b65
  Z: 3.0
  valence: 1
  core: 2
  charge: 0.0
  file: /Users/gabrielbirnbaum/dft_learning/DIR/gpaw-setups-0.9.20000/Li.LDA.gz
  compensation charges: gauss, rc=0.33, lmax=2
  cutoffs: 1.91(filt), 2.55(core),
  valence states:
                energy  radius
    2s(1.00)    -2.874   1.058
    2p(0.00)    -1.126   1.058
    *s          24.338   1.058

  Using partial waves for Li as LCAO basis

O-setup:
  name: Oxygen
  id: 9b9d51c344dea68c822856295a461509
  Z: 8.0
  valence: 6
  core: 2
  charge: 0.0
  Hubbard U: 0.760000 eV (l=1, scale=False)
  file: /Users/gabrielbirnbaum/dft_learning/DIR/gpaw-setups-0.9.20000/O.LDA.gz
  compensation charges: gauss, rc=0.21, lmax=2
  cutoffs: 1.17(filt), 0.83(core),
  valence states:
                energy  radius
    2s(2.00)   -23.752   0.688
    2p(4.00)    -9.195   0.598
    *s           3.459   0.688
    *p          18.016   0.598
    *d           0.000   0.619

  Using partial waves for O as LCAO basis

Reference energy: -8910.067456

Spin-paired calculation

Convergence criteria:
 Maximum [total energy] change in last 3 cyles: 0.0002 eV / electron
 Maximum integral of absolute [dens]ity change: 0.001 electrons / valence electron
 Maximum integral of absolute [eigenst]ate change: 0.0001 eV^2 / valence electron
 Maximum number of scf [iter]ations: 333
 (Square brackets indicate name in SCF output, whereas a 'c' in
 the SCF output indicates the quantity has converged.)

Symmetries present (total): 4

  ( 1  0  0)  ( 0  1  0)  ( 0 -1  0)  (-1  0  0)
  ( 0  1  0)  ( 1  0  0)  (-1  0  0)  ( 0 -1  0)
  ( 0  0  1)  ( 0  0 -1)  ( 0  0  1)  ( 0  0 -1)

216 k-points: 6 x 6 x 6 Monkhorst-Pack grid + [1/12,1/12,1/12]
68 k-points in the irreducible part of the Brillouin zone
       k-points in crystal coordinates                weights
   0:     0.00000000    0.00000000    0.00000000          1/216
   1:     0.00000000    0.00000000    0.16666667          2/216
   2:     0.00000000    0.00000000    0.33333333          2/216
   3:     0.00000000    0.00000000    0.50000000          1/216
   4:     0.16666667   -0.16666667   -0.33333333          2/216
   5:     0.16666667   -0.16666667   -0.16666667          2/216
   6:     0.16666667   -0.16666667    0.00000000          2/216
   7:     0.16666667   -0.16666667    0.16666667          2/216
   8:     0.16666667   -0.16666667    0.33333333          2/216
   9:     0.16666667   -0.16666667    0.50000000          2/216
          ...
  67:     0.50000000    0.50000000    0.50000000          1/216

Wave functions: Plane wave expansion
  Cutoff energy: 575.000 eV
  Number of coefficients (min, max): 2100, 2142
  Pulay-stress correction: 0.000000 eV/Ang^3 (de/decut=0.000000)
  Using Numpy's FFT
  ScaLapack parameters: grid=1x1, blocksize=None
  Wavefunction extrapolation:
    Improved wavefunction reuse through dual PAW basis

Occupation numbers: Fermi-Dirac: width=0.1000 eV

Eigensolver
   Davidson(niter=2)

Densities:
  Coarse grid: 18*18*45 grid
  Fine grid: 36*36*90 grid
  Total Charge: 0.000000

Density mixing:
  Method: separate
  Backend: pulay
  Linear mixing parameter: 0.05
  Mixing with 5 old densities
  Damping of long wave oscillations: 50

Hamiltonian:
  XC and Coulomb potentials evaluated on a 36*36*90 grid
  Using the LDA Exchange-Correlation functional
  External potential:
    NoExternalPotential

Total number of cores used: 1

Number of atoms: 8
Number of atomic orbitals: 32
Number of bands in calculation: 21
Number of valence electrons: 28
Bands to converge: occupied

... initialized

Initializing position-dependent things.

Density initialized from atomic densities
Creating initial wave functions:
  21 bands from LCAO basis set

             O

           LiO

[...]

           O Li

           O
        Li

Positions:
   0 Li     0.000000    0.000000    3.851761    ( 0.0000,  0.0000,  0.0000)
   1 Li     0.000000    0.000000    0.000000    ( 0.0000,  0.0000,  0.0000)
   2 Li     1.590181   -0.918093    5.777642    ( 0.0000,  0.0000,  0.0000)
   3 Li     1.590181    0.918093    1.925881    ( 0.0000,  0.0000,  0.0000)
   4 O      1.590181   -0.918093    1.150213    ( 0.0000,  0.0000,  0.0000)
   5 O      1.590181    0.918093    5.001974    ( 0.0000,  0.0000,  0.0000)
   6 O      1.590181    0.918093    6.553309    ( 0.0000,  0.0000,  0.0000)
   7 O      1.590181   -0.918093    2.701548    ( 0.0000,  0.0000,  0.0000)

Unit cell:
           periodic     x           y           z      points  spacing
  1. axis:    yes    1.590181   -2.754274    0.000000    18     0.1530
  2. axis:    yes    1.590181    2.754274    0.000000    18     0.1530
  3. axis:    yes    0.000000    0.000000    7.703522    45     0.1712

  Lengths:   3.180362   3.180362   7.703522
  Angles:   90.000000  90.000000 119.999995

Effective grid spacing dv^(1/3) = 0.1666

     iter     time        total  log10-change:
                         energy  eigst   dens
iter:   1 10:50:18   -42.128342
iter:   2 10:50:30   -41.945186  -1.66  -0.90
iter:   3 10:50:41   -41.047098  -1.39  -0.94
iter:   4 10:50:53   -41.299408  -1.38  -1.28
iter:   5 10:51:04   -40.886779  -1.54  -1.35
iter:   6 10:51:16   -40.887461  -3.35  -2.14
iter:   7 10:51:28   -40.923938  -2.31  -2.15
iter:   8 10:51:40   -40.882395  -2.70  -1.83
iter:   9 10:51:52   -40.881897  -4.09c -2.48
iter:  10 10:52:04   -40.882544c -3.45  -2.59
iter:  11 10:52:16   -40.881354c -4.38c -2.64
iter:  12 10:52:27   -40.881307c -5.06c -3.30c

Converged after 12 iterations.

Dipole moment: (0.000000, -0.000000, -0.000000) |e|*Ang

Energy contributions relative to reference atoms: (reference = -8910.067456)

Kinetic:        +36.292271
Potential:      -35.010104
External:        +0.000000
XC:             -42.692523
Entropy (-ST):   -0.000014
Local:           +0.529056
Free energy:    -40.881314
Extrapolated:   -40.881307

Showing only first 2 kpts
 Kpt  Band  Eigenvalues  Occupancy
  0    12      2.29743    1.99997
  0    13      2.29747    1.99997
  0    14      4.25466    0.00050
  0    15      6.49348    0.00000

  1    12      2.28195    1.99998
  1    13      2.28198    1.99998
  1    14      4.41878    0.00010
  1    15      6.33009    0.00000

Fermi level: 3.42457

Gap: 1.946 eV
Transition (v -> c):
  (s=0, k=12, n=13, [0.17, 0.00, 0.00]) -> (s=0, k=0, n=14, [0.00, 0.00, 0.00])
Timing:                              incl.     excl.
Hamiltonian:                         0.075     0.001   0.0% |
 Atomic:                             0.050     0.002   0.0% |
  XC Correction:                     0.047     0.047   0.0% |
 Calculate atomic Hamiltonians:      0.012     0.012   0.0% |
 Communicate:                        0.000     0.000   0.0% |
 Initialize Hamiltonian:             0.000     0.000   0.0% |
 Poisson:                            0.000     0.000   0.0% |
 XC 3D grid:                         0.012     0.012   0.0% |
LCAO initialization:                10.359     0.129   0.1% |
 LCAO eigensolver:                   1.012     0.002   0.0% |
  Calculate projections:             0.004     0.004   0.0% |
  DenseAtomicCorrection:             0.014     0.014   0.0% |
  Distribute overlap matrix:         0.001     0.001   0.0% |
  Orbital Layouts:                   0.027     0.027   0.0% |
  Potential matrix:                  0.902     0.902   0.6% |
  Sum over cells:                    0.061     0.061   0.0% |
 LCAO to grid:                       7.515     7.515   5.0% |-|
 Set positions (LCAO WFS):           1.704     0.237   0.2% |
  Basic WFS set positions:           0.001     0.001   0.0% |
  Basis functions set positions:     0.000     0.000   0.0% |
  P tci:                             0.624     0.624   0.4% |
  ST tci:                            0.798     0.798   0.5% |
  mktci:                             0.044     0.044   0.0% |
PWDescriptor:                        0.053     0.053   0.0% |
SCF-cycle:                         139.455     0.206   0.1% |
 Davidson:                         126.560    10.579   7.0% |--|
  Apply H:                          25.426    25.131  16.7% |------|
   HMM T:                            0.296     0.296   0.2% |
  Subspace diag:                    32.672     0.058   0.0% |
   calc_h_matrix:                   31.732     0.608   0.4% |
    Apply H:                        31.125    30.841  20.5% |-------|
     HMM T:                          0.284     0.284   0.2% |
   diagonalize:                      0.356     0.356   0.2% |
   rotate_psi:                       0.526     0.526   0.3% |
  calc. matrices:                   55.869     5.061   3.4% ||
   Apply H:                         50.808    49.634  32.9% |------------|
    HMM T:                           1.174     1.174   0.8% |
  diagonalize:                       1.064     1.064   0.7% |
  rotate_psi:                        0.950     0.950   0.6% |
 Density:                           11.373     0.000   0.0% |
  Atomic density matrices:           0.092     0.092   0.1% |
  Mix:                               0.287     0.287   0.2% |
  Multipole moments:                 0.002     0.002   0.0% |
  Pseudo density:                   10.991    10.976   7.3% |--|
   Symmetrize density:               0.016     0.016   0.0% |
 Hamiltonian:                        1.055     0.017   0.0% |
  Atomic:                            0.682     0.033   0.0% |
   XC Correction:                    0.649     0.649   0.4% |
  Calculate atomic Hamiltonians:     0.170     0.170   0.1% |
  Communicate:                       0.000     0.000   0.0% |
  Poisson:                           0.004     0.004   0.0% |
  XC 3D grid:                        0.182     0.182   0.1% |
 Orthonormalize:                     0.260     0.005   0.0% |
  calc_s_matrix:                     0.106     0.106   0.1% |
  inverse-cholesky:                  0.006     0.006   0.0% |
  projections:                       0.123     0.123   0.1% |
  rotate_psi_s:                      0.021     0.021   0.0% |
Set symmetry:                        0.005     0.005   0.0% |
Other:                               0.728     0.728   0.5% |
Total:                                       150.675 100.0%