User:   gabrielbirnbaum@Gabriels-MacBook-Pro.local
Date:   Mon Jul 25 11:39:46 2022
Arch:   x86_64
Pid:    69738
Python: 3.9.13
gpaw:   /Users/gabrielbirnbaum/PycharmProjects/nanolithia/venv/lib/python3.9/site-packages/gpaw
_gpaw:  /Users/gabrielbirnbaum/PycharmProjects/nanolithia/venv/lib/python3.9/site-packages/
        _gpaw.cpython-39-darwin.so
ase:    /Users/gabrielbirnbaum/PycharmProjects/nanolithia/venv/lib/python3.9/site-packages/ase (version 3.22.1)
numpy:  /Users/gabrielbirnbaum/PycharmProjects/nanolithia/venv/lib/python3.9/site-packages/numpy (version 1.23.0)
scipy:  /Users/gabrielbirnbaum/PycharmProjects/nanolithia/venv/lib/python3.9/site-packages/scipy (version 1.8.1)
units:  Angstrom and eV
cores: 1
OpenMP: False
OMP_NUM_THREADS: 1

Input parameters:
  convergence: {density: 0.001,
                eigenstates: 0.0001,
                energy: 0.0002}
  kpts: {gamma: True,
         size: (6, 6, 6)}
  mode: {ecut: 900.0000000000001,
         name: pw}
  setups: {O: :p,0.76,0}
  spinpol: False

System changes: positions, numbers, cell, pbc, initial_charges, initial_magmoms

Initialize ...

Li-setup:
  name: Lithium
  id: b73562207f97a71b6967473b66fe8b65
  Z: 3.0
  valence: 1
  core: 2
  charge: 0.0
  file: /Users/gabrielbirnbaum/dft_learning/DIR/gpaw-setups-0.9.20000/Li.LDA.gz
  compensation charges: gauss, rc=0.33, lmax=2
  cutoffs: 1.91(filt), 2.55(core),
  valence states:
                energy  radius
    2s(1.00)    -2.874   1.058
    2p(0.00)    -1.126   1.058
    *s          24.338   1.058

  Using partial waves for Li as LCAO basis

O-setup:
  name: Oxygen
  id: 9b9d51c344dea68c822856295a461509
  Z: 8.0
  valence: 6
  core: 2
  charge: 0.0
  Hubbard U: 0.760000 eV (l=1, scale=False)
  file: /Users/gabrielbirnbaum/dft_learning/DIR/gpaw-setups-0.9.20000/O.LDA.gz
  compensation charges: gauss, rc=0.21, lmax=2
  cutoffs: 1.17(filt), 0.83(core),
  valence states:
                energy  radius
    2s(2.00)   -23.752   0.688
    2p(4.00)    -9.195   0.598
    *s           3.459   0.688
    *p          18.016   0.598
    *d           0.000   0.619

  Using partial waves for O as LCAO basis

Reference energy: -8910.067456

Spin-paired calculation

Convergence criteria:
 Maximum [total energy] change in last 3 cyles: 0.0002 eV / electron
 Maximum integral of absolute [dens]ity change: 0.001 electrons / valence electron
 Maximum integral of absolute [eigenst]ate change: 0.0001 eV^2 / valence electron
 Maximum number of scf [iter]ations: 333
 (Square brackets indicate name in SCF output, whereas a 'c' in
 the SCF output indicates the quantity has converged.)

Symmetries present (total): 4

  ( 1  0  0)  ( 0  1  0)  ( 0 -1  0)  (-1  0  0)
  ( 0  1  0)  ( 1  0  0)  (-1  0  0)  ( 0 -1  0)
  ( 0  0  1)  ( 0  0 -1)  ( 0  0  1)  ( 0  0 -1)

216 k-points: 6 x 6 x 6 Monkhorst-Pack grid + [1/12,1/12,1/12]
68 k-points in the irreducible part of the Brillouin zone
       k-points in crystal coordinates                weights
   0:     0.00000000    0.00000000    0.00000000          1/216
   1:     0.00000000    0.00000000    0.16666667          2/216
   2:     0.00000000    0.00000000    0.33333333          2/216
   3:     0.00000000    0.00000000    0.50000000          1/216
   4:     0.16666667   -0.16666667   -0.33333333          2/216
   5:     0.16666667   -0.16666667   -0.16666667          2/216
   6:     0.16666667   -0.16666667    0.00000000          2/216
   7:     0.16666667   -0.16666667    0.16666667          2/216
   8:     0.16666667   -0.16666667    0.33333333          2/216
   9:     0.16666667   -0.16666667    0.50000000          2/216
          ...
  67:     0.50000000    0.50000000    0.50000000          1/216

Wave functions: Plane wave expansion
  Cutoff energy: 900.000 eV
  Number of coefficients (min, max): 4120, 4164
  Pulay-stress correction: 0.000000 eV/Ang^3 (de/decut=0.000000)
  Using Numpy's FFT
  ScaLapack parameters: grid=1x1, blocksize=None
  Wavefunction extrapolation:
    Improved wavefunction reuse through dual PAW basis

Occupation numbers: Fermi-Dirac: width=0.1000 eV

Eigensolver
   Davidson(niter=2)

Densities:
  Coarse grid: 24*24*54 grid
  Fine grid: 48*48*108 grid
  Total Charge: 0.000000

Density mixing:
  Method: separate
  Backend: pulay
  Linear mixing parameter: 0.05
  Mixing with 5 old densities
  Damping of long wave oscillations: 50

Hamiltonian:
  XC and Coulomb potentials evaluated on a 48*48*108 grid
  Using the LDA Exchange-Correlation functional
  External potential:
    NoExternalPotential

Total number of cores used: 1

Number of atoms: 8
Number of atomic orbitals: 32
Number of bands in calculation: 21
Number of valence electrons: 28
Bands to converge: occupied

... initialized

Initializing position-dependent things.

Density initialized from atomic densities
Creating initial wave functions:
  21 bands from LCAO basis set

             O

           LiO

[...]

           O Li

           O
        Li

Positions:
   0 Li     0.000000    0.000000    3.851761    ( 0.0000,  0.0000,  0.0000)
   1 Li     0.000000    0.000000    0.000000    ( 0.0000,  0.0000,  0.0000)
   2 Li     1.590181   -0.918093    5.777642    ( 0.0000,  0.0000,  0.0000)
   3 Li     1.590181    0.918093    1.925881    ( 0.0000,  0.0000,  0.0000)
   4 O      1.590181   -0.918093    1.150213    ( 0.0000,  0.0000,  0.0000)
   5 O      1.590181    0.918093    5.001974    ( 0.0000,  0.0000,  0.0000)
   6 O      1.590181    0.918093    6.553309    ( 0.0000,  0.0000,  0.0000)
   7 O      1.590181   -0.918093    2.701548    ( 0.0000,  0.0000,  0.0000)

Unit cell:
           periodic     x           y           z      points  spacing
  1. axis:    yes    1.590181   -2.754274    0.000000    24     0.1148
  2. axis:    yes    1.590181    2.754274    0.000000    24     0.1148
  3. axis:    yes    0.000000    0.000000    7.703522    54     0.1427

  Lengths:   3.180362   3.180362   7.703522
  Angles:   90.000000  90.000000 119.999995

Effective grid spacing dv^(1/3) = 0.1295

     iter     time        total  log10-change:
                         energy  eigst   dens
iter:   1 11:40:27   -42.672444
iter:   2 11:40:47   -42.485173  -1.52  -0.91
iter:   3 11:41:13   -41.579064  -1.30  -0.94
iter:   4 11:41:36   -41.880769  -1.28  -1.26
iter:   5 11:42:02   -41.415191  -1.26  -1.33
iter:   6 11:42:29   -41.417064  -3.09  -2.13
iter:   7 11:42:57   -41.457454  -2.02  -2.13
iter:   8 11:43:21   -41.409660  -2.40  -1.81
iter:   9 11:43:47   -41.409366  -3.91  -2.54
iter:  10 11:44:09   -41.410105c -3.44  -2.66
iter:  11 11:44:34   -41.409404c -4.87c -2.70
iter:  12 11:44:59   -41.409123c -4.35c -2.94
iter:  13 11:45:27   -41.409124c -6.38c -3.87c

Converged after 13 iterations.

Dipole moment: (0.000000, -0.000000, -0.000000) |e|*Ang

Energy contributions relative to reference atoms: (reference = -8910.067456)

Kinetic:        +40.631863
Potential:      -39.985703
External:        +0.000000
XC:             -42.949746
Entropy (-ST):   -0.000014
Local:           +0.894469
Free energy:    -41.409131
Extrapolated:   -41.409124

Showing only first 2 kpts
 Kpt  Band  Eigenvalues  Occupancy
  0    12      2.29787    1.99997
  0    13      2.29787    1.99997
  0    14      4.25515    0.00049
  0    15      6.48921    0.00000

  1    12      2.28239    1.99998
  1    13      2.28239    1.99998
  1    14      4.41836    0.00010
  1    15      6.32878    0.00000

Fermi level: 3.42341

Gap: 1.946 eV
Transition (v -> c):
  (s=0, k=12, n=13, [0.17, 0.00, 0.00]) -> (s=0, k=0, n=14, [0.00, 0.00, 0.00])
Timing:                              incl.     excl.
Hamiltonian:                         0.096     0.003   0.0% |
 Atomic:                             0.046     0.002   0.0% |
  XC Correction:                     0.044     0.044   0.0% |
 Calculate atomic Hamiltonians:      0.022     0.022   0.0% |
 Communicate:                        0.000     0.000   0.0% |
 Initialize Hamiltonian:             0.000     0.000   0.0% |
 Poisson:                            0.001     0.001   0.0% |
 XC 3D grid:                         0.025     0.025   0.0% |
LCAO initialization:                19.980     0.053   0.0% |
 LCAO eigensolver:                   1.896     0.002   0.0% |
  Calculate projections:             0.004     0.004   0.0% |
  DenseAtomicCorrection:             0.015     0.015   0.0% |
  Distribute overlap matrix:         0.002     0.002   0.0% |
  Orbital Layouts:                   0.036     0.036   0.0% |
  Potential matrix:                  1.765     1.765   0.5% |
  Sum over cells:                    0.072     0.072   0.0% |
 LCAO to grid:                      16.355    16.355   4.8% |-|
 Set positions (LCAO WFS):           1.676     0.236   0.1% |
  Basic WFS set positions:           0.001     0.001   0.0% |
  Basis functions set positions:     0.000     0.000   0.0% |
  P tci:                             0.631     0.631   0.2% |
  ST tci:                            0.764     0.764   0.2% |
  mktci:                             0.044     0.044   0.0% |
PWDescriptor:                        0.099     0.099   0.0% |
SCF-cycle:                         320.441     0.280   0.1% |
 Davidson:                         290.077    22.923   6.7% |--|
  Apply H:                          62.926    62.033  18.1% |------|
   HMM T:                            0.893     0.893   0.3% |
  Subspace diag:                    67.655     0.094   0.0% |
   calc_h_matrix:                   65.870     1.299   0.4% |
    Apply H:                        64.571    63.904  18.7% |------|
     HMM T:                          0.666     0.666   0.2% |
   diagonalize:                      0.301     0.301   0.1% |
   rotate_psi:                       1.390     1.390   0.4% |
  calc. matrices:                  132.514     9.115   2.7% ||
   Apply H:                        123.400   121.196  35.4% |-------------|
    HMM T:                           2.204     2.204   0.6% |
  diagonalize:                       1.279     1.279   0.4% |
  rotate_psi:                        2.781     2.781   0.8% |
 Density:                           27.968     0.000   0.0% |
  Atomic density matrices:           0.128     0.128   0.0% |
  Mix:                               0.746     0.746   0.2% |
  Multipole moments:                 0.002     0.002   0.0% |
  Pseudo density:                   27.092    27.048   7.9% |--|
   Symmetrize density:               0.045     0.045   0.0% |
 Hamiltonian:                        1.651     0.040   0.0% |
  Atomic:                            0.759     0.033   0.0% |
   XC Correction:                    0.726     0.726   0.2% |
  Calculate atomic Hamiltonians:     0.352     0.352   0.1% |
  Communicate:                       0.000     0.000   0.0% |
  Poisson:                           0.011     0.011   0.0% |
  XC 3D grid:                        0.487     0.487   0.1% |
 Orthonormalize:                     0.465     0.006   0.0% |
  calc_s_matrix:                     0.137     0.137   0.0% |
  inverse-cholesky:                  0.007     0.007   0.0% |
  projections:                       0.264     0.264   0.1% |
  rotate_psi_s:                      0.051     0.051   0.0% |
Set symmetry:                        0.005     0.005   0.0% |
Other:                               1.277     1.277   0.4% |
Total:                                       341.897 100.0%