User:   gabrielbirnbaum@Gabriels-MacBook-Pro.local
Date:   Mon Jul 18 22:11:52 2022
Arch:   x86_64
Pid:    65545
Python: 3.9.13
gpaw:   /Users/gabrielbirnbaum/PycharmProjects/nanolithia/venv/lib/python3.9/site-packages/gpaw
_gpaw:  /Users/gabrielbirnbaum/PycharmProjects/nanolithia/venv/lib/python3.9/site-packages/
        _gpaw.cpython-39-darwin.so
ase:    /Users/gabrielbirnbaum/PycharmProjects/nanolithia/venv/lib/python3.9/site-packages/ase (version 3.22.1)
numpy:  /Users/gabrielbirnbaum/PycharmProjects/nanolithia/venv/lib/python3.9/site-packages/numpy (version 1.23.0)
scipy:  /Users/gabrielbirnbaum/PycharmProjects/nanolithia/venv/lib/python3.9/site-packages/scipy (version 1.8.1)
units:  Angstrom and eV
cores: 1
OpenMP: False
OMP_NUM_THREADS: 1

Input parameters:
  kpts: {size: (8, 8, 8)}
  mode: {ecut: 550.0,
         name: pw}
  setups: {O: :p,0.76}
  xc: PBE

System changes: positions, numbers, cell, pbc, initial_charges, initial_magmoms

Initialize ...

Li-setup:
  name: Lithium
  id: 830b4218f175192f93f959cfc0aad614
  Z: 3.0
  valence: 1
  core: 2
  charge: 0.0
  file: /Users/gabrielbirnbaum/dft_learning/DIR/gpaw-setups-0.9.20000/Li.PBE.gz
  compensation charges: gauss, rc=0.33, lmax=2
  cutoffs: 1.91(filt), 2.55(core),
  valence states:
                energy  radius
    2s(1.00)    -2.874   1.058
    2p(0.00)    -1.090   1.058
    *s          24.337   1.058

  Using partial waves for Li as LCAO basis

O-setup:
  name: Oxygen
  id: 32ecd46bf208036f09c70b0ec9a88b78
  Z: 8.0
  valence: 6
  core: 2
  charge: 0.0
  Hubbard U: 0.760000 eV (l=1, scale=True)
  file: /Users/gabrielbirnbaum/dft_learning/DIR/gpaw-setups-0.9.20000/O.PBE.gz
  compensation charges: gauss, rc=0.21, lmax=2
  cutoffs: 1.17(filt), 0.83(core),
  valence states:
                energy  radius
    2s(2.00)   -23.961   0.688
    2p(4.00)    -9.029   0.598
    *s           3.251   0.688
    *p          18.182   0.598
    *d           0.000   0.619

  Using partial waves for O as LCAO basis

Reference energy: -8974.560486

Spin-paired calculation

Convergence criteria:
 Maximum [total energy] change in last 3 cyles: 0.0005 eV / electron
 Maximum integral of absolute [dens]ity change: 0.0001 electrons / valence electron
 Maximum integral of absolute [eigenst]ate change: 4e-08 eV^2 / valence electron
 Maximum number of scf [iter]ations: 333
 (Square brackets indicate name in SCF output, whereas a 'c' in
 the SCF output indicates the quantity has converged.)

Symmetries present (total): 4

  ( 1  0  0)  ( 0  1  0)  ( 0 -1  0)  (-1  0  0)
  ( 0  1  0)  ( 1  0  0)  (-1  0  0)  ( 0 -1  0)
  ( 0  0  1)  ( 0  0 -1)  ( 0  0  1)  ( 0  0 -1)

512 k-points: 8 x 8 x 8 Monkhorst-Pack grid
144 k-points in the irreducible part of the Brillouin zone
       k-points in crystal coordinates                weights
   0:     0.06250000   -0.06250000   -0.43750000          2/512
   1:     0.06250000   -0.06250000   -0.31250000          2/512
   2:     0.06250000   -0.06250000   -0.18750000          2/512
   3:     0.06250000   -0.06250000   -0.06250000          2/512
   4:     0.06250000   -0.06250000    0.06250000          2/512
   5:     0.06250000   -0.06250000    0.18750000          2/512
   6:     0.06250000   -0.06250000    0.31250000          2/512
   7:     0.06250000   -0.06250000    0.43750000          2/512
   8:     0.06250000    0.06250000    0.06250000          4/512
   9:     0.06250000    0.06250000    0.18750000          4/512
          ...
 143:     0.43750000    0.43750000    0.43750000          4/512

Wave functions: Plane wave expansion
  Cutoff energy: 550.000 eV
  Number of coefficients (min, max): 1947, 1998
  Pulay-stress correction: 0.000000 eV/Ang^3 (de/decut=0.000000)
  Using Numpy's FFT
  ScaLapack parameters: grid=1x1, blocksize=None
  Wavefunction extrapolation:
    Improved wavefunction reuse through dual PAW basis

Occupation numbers: Fermi-Dirac: width=0.1000 eV

Eigensolver
   Davidson(niter=2)

Densities:
  Coarse grid: 18*18*42 grid
  Fine grid: 36*36*84 grid
  Total Charge: 0.000000

Density mixing:
  Method: separate
  Backend: pulay
  Linear mixing parameter: 0.05
  Mixing with 5 old densities
  Damping of long wave oscillations: 50

Hamiltonian:
  XC and Coulomb potentials evaluated on a 36*36*84 grid
  Using the PBE Exchange-Correlation functional
  External potential:
    NoExternalPotential

XC parameters: PBE with 2 nearest neighbor stencil

Total number of cores used: 1

Number of atoms: 8
Number of atomic orbitals: 32
Number of bands in calculation: 21
Number of valence electrons: 28
Bands to converge: occupied

... initialized

Initializing position-dependent things.

Density initialized from atomic densities
Creating initial wave functions:
  21 bands from LCAO basis set

             O

           LiO

[...]

           O Li

           O
        Li

Positions:
   0 Li     0.000000    0.000000    3.851761    ( 0.0000,  0.0000,  0.0000)
   1 Li     0.000000    0.000000    0.000000    ( 0.0000,  0.0000,  0.0000)
   2 Li     1.590181   -0.918093    5.777642    ( 0.0000,  0.0000,  0.0000)
   3 Li     1.590181    0.918093    1.925881    ( 0.0000,  0.0000,  0.0000)
   4 O      1.590181   -0.918093    1.150213    ( 0.0000,  0.0000,  0.0000)
   5 O      1.590181    0.918093    5.001974    ( 0.0000,  0.0000,  0.0000)
   6 O      1.590181    0.918093    6.553309    ( 0.0000,  0.0000,  0.0000)
   7 O      1.590181   -0.918093    2.701548    ( 0.0000,  0.0000,  0.0000)

Unit cell:
           periodic     x           y           z      points  spacing
  1. axis:    yes    1.590181   -2.754274    0.000000    18     0.1530
  2. axis:    yes    1.590181    2.754274    0.000000    18     0.1530
  3. axis:    yes    0.000000    0.000000    7.703522    42     0.1834

  Lengths:   3.180362   3.180362   7.703522
  Angles:   90.000000  90.000000 119.999995

Effective grid spacing dv^(1/3) = 0.1705

     iter     time        total  log10-change:
                         energy  eigst   dens
iter:   1 22:12:32   -38.403267
iter:   2 22:12:54   -38.207098  -1.69  -0.88
iter:   3 22:13:15   -37.361892  -1.31  -0.92
iter:   4 22:13:37   -37.884704  -1.27  -1.27
iter:   5 22:14:01   -37.335093  -1.55  -1.29
iter:   6 22:14:24   -37.336188  -3.26  -2.12
iter:   7 22:14:46   -37.381575  -2.39  -2.13
iter:   8 22:15:09   -37.346545  -2.16  -1.82
iter:   9 22:15:31   -37.338211  -4.08  -2.10
iter:  10 22:15:52   -37.338032c -5.76  -2.27
iter:  11 22:16:14   -37.333570c -3.29  -2.28
iter:  12 22:16:37   -37.333572c -5.14  -3.41
iter:  13 22:16:58   -37.333563c -5.71  -3.47
iter:  14 22:17:22   -37.333560c -7.04  -3.52
iter:  15 22:17:44   -37.333600c -5.26  -3.64
iter:  16 22:18:05   -37.333560c -5.67  -3.38
iter:  17 22:18:26   -37.333561c -7.61c -4.21c

Converged after 17 iterations.

Dipole moment: (0.000000, -0.000000, -0.000000) |e|*Ang

Energy contributions relative to reference atoms: (reference = -8974.560486)

Kinetic:        +42.506533
Potential:      -39.158194
External:        +0.000000
XC:             -41.140869
Entropy (-ST):   -0.000002
Local:           +0.458971
Free energy:    -37.333562
Extrapolated:   -37.333561

Showing only first 2 kpts
 Kpt  Band  Eigenvalues  Occupancy
  0    12      2.34808    2.00000
  0    13      2.40095    2.00000
  0    14      5.78333    0.00000
  0    15      6.20704    0.00000

  1    12      2.37948    2.00000
  1    13      2.44825    2.00000
  1    14      5.38815    0.00000
  1    15      6.60174    0.00000

Fermi level: 3.81035

Gap: 2.401 eV
Transition (v -> c):
  (s=0, k=3, n=13, [0.06, -0.06, -0.06]) -> (s=0, k=4, n=14, [0.06, -0.06, 0.06])
Timing:                              incl.     excl.
Hamiltonian:                         0.248     0.001   0.0% |
 Atomic:                             0.191     0.003   0.0% |
  XC Correction:                     0.188     0.188   0.0% |
 Calculate atomic Hamiltonians:      0.014     0.014   0.0% |
 Communicate:                        0.000     0.000   0.0% |
 Initialize Hamiltonian:             0.000     0.000   0.0% |
 Poisson:                            0.000     0.000   0.0% |
 XC 3D grid:                         0.042     0.042   0.0% |
LCAO initialization:                20.491     0.051   0.0% |
 LCAO eigensolver:                   1.117     0.005   0.0% |
  Calculate projections:             0.010     0.010   0.0% |
  DenseAtomicCorrection:             0.033     0.033   0.0% |
  Distribute overlap matrix:         0.003     0.003   0.0% |
  Orbital Layouts:                   0.073     0.073   0.0% |
  Potential matrix:                  0.862     0.862   0.1% |
  Sum over cells:                    0.131     0.131   0.0% |
 LCAO to grid:                      15.233    15.233   1.9% ||
 Set positions (LCAO WFS):           4.090     0.512   0.1% |
  Basic WFS set positions:           0.001     0.001   0.0% |
  Basis functions set positions:     0.000     0.000   0.0% |
  P tci:                             1.479     1.479   0.2% |
  ST tci:                            2.017     2.017   0.2% |
  mktci:                             0.080     0.080   0.0% |
PWDescriptor:                        0.067     0.067   0.0% |
SCF-cycle:                         372.401     0.636   0.1% |
 Davidson:                         332.547    22.058   2.7% ||
  Apply H:                          73.522    72.755   8.9% |---|
   HMM T:                            0.767     0.767   0.1% |
  Subspace diag:                    75.389     0.185   0.0% |
   calc_h_matrix:                   73.037     1.650   0.2% |
    Apply H:                        71.387    70.611   8.7% |--|
     HMM T:                          0.776     0.776   0.1% |
   diagonalize:                      0.593     0.593   0.1% |
   rotate_psi:                       1.573     1.573   0.2% |
  calc. matrices:                  155.654    13.267   1.6% ||
   Apply H:                        142.388   140.885  17.3% |------|
    HMM T:                           1.503     1.503   0.2% |
  diagonalize:                       2.933     2.933   0.4% |
  rotate_psi:                        2.991     2.991   0.4% |
 Density:                           35.022     0.000   0.0% |
  Atomic density matrices:           0.363     0.363   0.0% |
  Mix:                               0.481     0.481   0.1% |
  Multipole moments:                 0.003     0.003   0.0% |
  Pseudo density:                   34.175    34.149   4.2% |-|
   Symmetrize density:               0.026     0.026   0.0% |
 Hamiltonian:                        3.741     0.034   0.0% |
  Atomic:                            2.765     0.057   0.0% |
   XC Correction:                    2.708     2.708   0.3% |
  Calculate atomic Hamiltonians:     0.265     0.265   0.0% |
  Communicate:                       0.000     0.000   0.0% |
  Poisson:                           0.009     0.009   0.0% |
  XC 3D grid:                        0.668     0.668   0.1% |
 Orthonormalize:                     0.454     0.010   0.0% |
  calc_s_matrix:                     0.184     0.184   0.0% |
  inverse-cholesky:                  0.012     0.012   0.0% |
  projections:                       0.206     0.206   0.0% |
  rotate_psi_s:                      0.042     0.042   0.0% |
Set symmetry:                        0.012     0.012   0.0% |
Other:                             421.270   421.270  51.7% |--------------------|
Total:                                       814.488 100.0%