User:   gabrielbirnbaum@Gabriels-MacBook-Pro.local
Date:   Wed Jul 20 07:59:33 2022
Arch:   x86_64
Pid:    84796
Python: 3.9.13
gpaw:   /Users/gabrielbirnbaum/PycharmProjects/nanolithia/venv/lib/python3.9/site-packages/gpaw
_gpaw:  /Users/gabrielbirnbaum/PycharmProjects/nanolithia/venv/lib/python3.9/site-packages/
        _gpaw.cpython-39-darwin.so
ase:    /Users/gabrielbirnbaum/PycharmProjects/nanolithia/venv/lib/python3.9/site-packages/ase (version 3.22.1)
numpy:  /Users/gabrielbirnbaum/PycharmProjects/nanolithia/venv/lib/python3.9/site-packages/numpy (version 1.23.0)
scipy:  /Users/gabrielbirnbaum/PycharmProjects/nanolithia/venv/lib/python3.9/site-packages/scipy (version 1.8.1)
units:  Angstrom and eV
cores: 1
OpenMP: False
OMP_NUM_THREADS: 1

Input parameters:
  convergence: {density: 0.001,
                eigenstates: 0.0001,
                energy: 0.0002}
  kpts: {gamma: True,
         size: (8, 8, 8)}
  mode: {ecut: 575.0,
         name: pw}
  setups: {O: :p,0.76,0}
  spinpol: True
  xc: PBE

System changes: positions, numbers, cell, pbc, initial_charges, initial_magmoms

Initialize ...

Li-setup:
  name: Lithium
  id: 830b4218f175192f93f959cfc0aad614
  Z: 3.0
  valence: 1
  core: 2
  charge: 0.0
  file: /Users/gabrielbirnbaum/dft_learning/DIR/gpaw-setups-0.9.20000/Li.PBE.gz
  compensation charges: gauss, rc=0.33, lmax=2
  cutoffs: 1.91(filt), 2.55(core),
  valence states:
                energy  radius
    2s(1.00)    -2.874   1.058
    2p(0.00)    -1.090   1.058
    *s          24.337   1.058

  Using partial waves for Li as LCAO basis

O-setup:
  name: Oxygen
  id: 32ecd46bf208036f09c70b0ec9a88b78
  Z: 8.0
  valence: 6
  core: 2
  charge: 0.0
  Hubbard U: 0.760000 eV (l=1, scale=False)
  file: /Users/gabrielbirnbaum/dft_learning/DIR/gpaw-setups-0.9.20000/O.PBE.gz
  compensation charges: gauss, rc=0.21, lmax=2
  cutoffs: 1.17(filt), 0.83(core),
  valence states:
                energy  radius
    2s(2.00)   -23.961   0.688
    2p(4.00)    -9.029   0.598
    *s           3.251   0.688
    *p          18.182   0.598
    *d           0.000   0.619

  Using partial waves for O as LCAO basis

Reference energy: -8974.560486

Spin-polarized calculation.
Magnetic moment: 0.000000

Convergence criteria:
 Maximum [total energy] change in last 3 cyles: 0.0002 eV / electron
 Maximum integral of absolute [dens]ity change: 0.001 electrons / valence electron
 Maximum integral of absolute [eigenst]ate change: 0.0001 eV^2 / valence electron
 Maximum number of scf [iter]ations: 333
 (Square brackets indicate name in SCF output, whereas a 'c' in
 the SCF output indicates the quantity has converged.)

Symmetries present (total): 4

  ( 1  0  0)  ( 0  1  0)  ( 0 -1  0)  (-1  0  0)
  ( 0  1  0)  ( 1  0  0)  (-1  0  0)  ( 0 -1  0)
  ( 0  0  1)  ( 0  0 -1)  ( 0  0  1)  ( 0  0 -1)

512 k-points: 8 x 8 x 8 Monkhorst-Pack grid + [1/16,1/16,1/16]
150 k-points in the irreducible part of the Brillouin zone
       k-points in crystal coordinates                weights
   0:     0.00000000    0.00000000    0.00000000          1/512
   1:     0.00000000    0.00000000    0.12500000          2/512
   2:     0.00000000    0.00000000    0.25000000          2/512
   3:     0.00000000    0.00000000    0.37500000          2/512
   4:     0.00000000    0.00000000    0.50000000          1/512
   5:     0.12500000   -0.12500000   -0.37500000          2/512
   6:     0.12500000   -0.12500000   -0.25000000          2/512
   7:     0.12500000   -0.12500000   -0.12500000          2/512
   8:     0.12500000   -0.12500000    0.00000000          2/512
   9:     0.12500000   -0.12500000    0.12500000          2/512
          ...
 149:     0.50000000    0.50000000    0.50000000          1/512

Wave functions: Plane wave expansion
  Cutoff energy: 575.000 eV
  Number of coefficients (min, max): 2094, 2142
  Pulay-stress correction: 0.000000 eV/Ang^3 (de/decut=0.000000)
  Using Numpy's FFT
  ScaLapack parameters: grid=1x1, blocksize=None
  Wavefunction extrapolation:
    Improved wavefunction reuse through dual PAW basis

Occupation numbers: Fermi-Dirac: width=0.1000 eV

Eigensolver
   Davidson(niter=2)

Densities:
  Coarse grid: 18*18*45 grid
  Fine grid: 36*36*90 grid
  Total Charge: 0.000000

Density mixing:
  Method: difference
  Backend: pulay
  Linear mixing parameter: 0.05
  Mixing with 5 old densities
  Damping of long wave oscillations: 50

Hamiltonian:
  XC and Coulomb potentials evaluated on a 36*36*90 grid
  Using the PBE Exchange-Correlation functional
  External potential:
    NoExternalPotential

XC parameters: PBE with 2 nearest neighbor stencil

Total number of cores used: 1

Number of atoms: 8
Number of atomic orbitals: 32
Number of bands in calculation: 21
Number of valence electrons: 28
Bands to converge: occupied

... initialized

Initializing position-dependent things.

Density initialized from atomic densities
Creating initial wave functions:
  21 bands from LCAO basis set

             O

           LiO

[...]

           O Li

           O
        Li

Positions:
   0 Li     0.000000    0.000000    3.851761    ( 0.0000,  0.0000,  0.0000)
   1 Li     0.000000    0.000000    0.000000    ( 0.0000,  0.0000,  0.0000)
   2 Li     1.590181   -0.918093    5.777642    ( 0.0000,  0.0000,  0.0000)
   3 Li     1.590181    0.918093    1.925881    ( 0.0000,  0.0000,  0.0000)
   4 O      1.590181   -0.918093    1.150213    ( 0.0000,  0.0000,  0.0000)
   5 O      1.590181    0.918093    5.001974    ( 0.0000,  0.0000,  0.0000)
   6 O      1.590181    0.918093    6.553309    ( 0.0000,  0.0000,  0.0000)
   7 O      1.590181   -0.918093    2.701548    ( 0.0000,  0.0000,  0.0000)

Unit cell:
           periodic     x           y           z      points  spacing
  1. axis:    yes    1.590181   -2.754274    0.000000    18     0.1530
  2. axis:    yes    1.590181    2.754274    0.000000    18     0.1530
  3. axis:    yes    0.000000    0.000000    7.703522    45     0.1712

  Lengths:   3.180362   3.180362   7.703522
  Angles:   90.000000  90.000000 119.999995

Effective grid spacing dv^(1/3) = 0.1666

     iter     time        total  log10-change:  magmom
                         energy  eigst   dens
iter:   1 08:04:56   -38.198819                  +0.0000
iter:   2 08:05:39   -38.001157  -1.66  -0.89    +0.0000
iter:   3 08:06:25   -37.090386  -1.34  -0.93    -0.0000
iter:   4 08:07:10   -37.492505  -1.31  -1.27    -0.0000
iter:   5 08:07:55   -37.007459  -1.59  -1.32    -0.0000
iter:   6 08:08:41   -37.008259  -3.30  -2.10    -0.0000
iter:   7 08:09:27   -37.053413  -2.32  -2.12    -0.0000
iter:   8 08:10:14   -37.017017  -2.16  -1.82    -0.0000
iter:   9 08:10:59   -37.011236  -4.29c -2.12    -0.0000
iter:  10 08:11:43   -37.010930  -5.81c -2.23    -0.0000
iter:  11 08:12:26   -37.005591  -3.09  -2.24    -0.0000
iter:  12 08:13:10   -37.005416c -5.25c -3.06c   -0.0000

Converged after 12 iterations.

Dipole moment: (0.000000, -0.000000, -0.000000) |e|*Ang

Total magnetic moment: (0.000000, 0.000000, -0.000000)
Local magnetic moments:
   0 Li ( 0.000000,  0.000000, -0.000000)
   1 Li ( 0.000000,  0.000000, -0.000000)
   2 Li ( 0.000000,  0.000000, -0.000000)
   3 Li ( 0.000000,  0.000000, -0.000000)
   4 O  ( 0.000000,  0.000000,  0.000000)
   5 O  ( 0.000000,  0.000000, -0.000000)
   6 O  ( 0.000000,  0.000000,  0.000000)
   7 O  ( 0.000000,  0.000000, -0.000000)

Energy contributions relative to reference atoms: (reference = -8974.560486)

Kinetic:        +38.284589
Potential:      -36.287859
External:        +0.000000
XC:             -39.559988
Entropy (-ST):   -0.000006
Local:           +0.557846
Free energy:    -37.005419
Extrapolated:   -37.005416

Spin contamination: 0.000000 electrons
Showing only first 2 kpts
                      Up                     Down
 Kpt  Band  Eigenvalues  Occupancy  Eigenvalues  Occupancy
  0    12      2.63750    0.99999      2.63750    0.99999
  0    13      2.63768    0.99999      2.63768    0.99999
  0    14      4.76393    0.00010      4.76393    0.00010
  0    15      7.03854    0.00000      7.03854    0.00000

  1    12      2.62903    0.99999      2.62903    0.99999
  1    13      2.62921    0.99999      2.62921    0.99999
  1    14      4.85822    0.00004      4.85822    0.00004
  1    15      6.94249    0.00000      6.94249    0.00000

Fermi level: 3.84639

Gap: 2.115 eV
Transition (v -> c):
  (s=1, k=8, n=13, [0.12, -0.12, 0.00]) -> (s=1, k=0, n=14, [0.00, 0.00, 0.00])
Timing:                              incl.     excl.
Hamiltonian:                         0.301     0.001   0.0% |
 Atomic:                             0.231     0.003   0.0% |
  XC Correction:                     0.228     0.228   0.0% |
 Calculate atomic Hamiltonians:      0.015     0.015   0.0% |
 Communicate:                        0.000     0.000   0.0% |
 Initialize Hamiltonian:             0.000     0.000   0.0% |
 Poisson:                            0.000     0.000   0.0% |
 XC 3D grid:                         0.054     0.054   0.0% |
LCAO initialization:               283.669     0.037   0.0% |
 LCAO eigensolver:                 248.623     0.014   0.0% |
  Calculate projections:             0.025     0.025   0.0% |
  DenseAtomicCorrection:             0.056     0.056   0.0% |
  Distribute overlap matrix:         0.008     0.008   0.0% |
  Orbital Layouts:                   0.157     0.157   0.0% |
  Potential matrix:                248.070   248.070  18.9% |-------|
  Sum over cells:                    0.294     0.294   0.0% |
 LCAO to grid:                      31.957    31.957   2.4% ||
 Set positions (LCAO WFS):           3.053     0.392   0.0% |
  Basic WFS set positions:           0.001     0.001   0.0% |
  Basis functions set positions:     0.000     0.000   0.0% |
  P tci:                             1.176     1.176   0.1% |
  ST tci:                            1.441     1.441   0.1% |
  mktci:                             0.044     0.044   0.0% |
PWDescriptor:                        0.069     0.069   0.0% |
SCF-cycle:                         532.316     0.870   0.1% |
 Davidson:                         484.702    34.372   2.6% ||
  Apply H:                         106.560   105.348   8.0% |--|
   HMM T:                            1.212     1.212   0.1% |
  Subspace diag:                   114.093     0.247   0.0% |
   calc_h_matrix:                  110.815     2.108   0.2% |
    Apply H:                       108.707   107.584   8.2% |--|
     HMM T:                          1.123     1.123   0.1% |
   diagonalize:                      0.823     0.823   0.1% |
   rotate_psi:                       2.208     2.208   0.2% |
  calc. matrices:                  221.617    13.788   1.1% |
   Apply H:                        207.829   205.703  15.7% |-----|
    HMM T:                           2.126     2.126   0.2% |
  diagonalize:                       3.965     3.965   0.3% |
  rotate_psi:                        4.095     4.095   0.3% |
 Density:                           42.505     0.000   0.0% |
  Atomic density matrices:           0.341     0.341   0.0% |
  Mix:                               0.329     0.329   0.0% |
  Multipole moments:                 0.002     0.002   0.0% |
  Pseudo density:                   41.833    41.805   3.2% ||
   Symmetrize density:               0.028     0.028   0.0% |
 Hamiltonian:                        3.554     0.012   0.0% |
  Atomic:                            2.555     0.034   0.0% |
   XC Correction:                    2.521     2.521   0.2% |
  Calculate atomic Hamiltonians:     0.143     0.143   0.0% |
  Communicate:                       0.000     0.000   0.0% |
  Poisson:                           0.004     0.004   0.0% |
  XC 3D grid:                        0.839     0.839   0.1% |
 Orthonormalize:                     0.685     0.019   0.0% |
  calc_s_matrix:                     0.101     0.101   0.0% |
  inverse-cholesky:                  0.023     0.023   0.0% |
  projections:                       0.454     0.454   0.0% |
  rotate_psi_s:                      0.088     0.088   0.0% |
Set symmetry:                        0.010     0.010   0.0% |
Other:                             495.256   495.256  37.8% |--------------|
Total:                                      1311.621 100.0%