User:   gabrielbirnbaum@Gabriels-MacBook-Pro.local
Date:   Sun Aug  7 17:31:15 2022
Arch:   x86_64
Pid:    93006
Python: 3.9.13
gpaw:   /Users/gabrielbirnbaum/PycharmProjects/nanolithia/venv/lib/python3.9/site-packages/gpaw
_gpaw:  /Users/gabrielbirnbaum/PycharmProjects/nanolithia/venv/lib/python3.9/site-packages/
        _gpaw.cpython-39-darwin.so
ase:    /Users/gabrielbirnbaum/PycharmProjects/nanolithia/venv/lib/python3.9/site-packages/ase (version 3.22.1)
numpy:  /Users/gabrielbirnbaum/PycharmProjects/nanolithia/venv/lib/python3.9/site-packages/numpy (version 1.23.0)
scipy:  /Users/gabrielbirnbaum/PycharmProjects/nanolithia/venv/lib/python3.9/site-packages/scipy (version 1.8.1)
units:  Angstrom and eV
cores: 1
OpenMP: False
OMP_NUM_THREADS: 1

Input parameters:
  kpts: {gamma: True,
         size: (5, 5, 7)}
  mode: {ecut: 540.0,
         name: pw}
  xc: PBE

System changes: positions, numbers, cell, pbc, initial_charges, initial_magmoms

Initialize ...

Li-setup:
  name: Lithium
  id: 830b4218f175192f93f959cfc0aad614
  Z: 3.0
  valence: 1
  core: 2
  charge: 0.0
  file: /Users/gabrielbirnbaum/PycharmProjects/nanolithia/venv/lib/python3.9/site-packages/ase/vibrations/setups/gpaw-setups-0.9.20000/Li.PBE.gz
  compensation charges: gauss, rc=0.33, lmax=2
  cutoffs: 1.91(filt), 2.55(core),
  valence states:
                energy  radius
    2s(1.00)    -2.874   1.058
    2p(0.00)    -1.090   1.058
    *s          24.337   1.058

  Using partial waves for Li as LCAO basis

O-setup:
  name: Oxygen
  id: 32ecd46bf208036f09c70b0ec9a88b78
  Z: 8.0
  valence: 6
  core: 2
  charge: 0.0
  file: /Users/gabrielbirnbaum/PycharmProjects/nanolithia/venv/lib/python3.9/site-packages/ase/vibrations/setups/gpaw-setups-0.9.20000/O.PBE.gz
  compensation charges: gauss, rc=0.21, lmax=2
  cutoffs: 1.17(filt), 0.83(core),
  valence states:
                energy  radius
    2s(2.00)   -23.961   0.688
    2p(4.00)    -9.029   0.598
    *s           3.251   0.688
    *p          18.182   0.598
    *d           0.000   0.619

  Using partial waves for O as LCAO basis

Reference energy: -8974.560486

Spin-polarized calculation.
Magnetic moment: 4.800000

Convergence criteria:
 Maximum [total energy] change in last 3 cyles: 0.0005 eV / electron
 Maximum integral of absolute [dens]ity change: 0.0001 electrons / valence electron
 Maximum integral of absolute [eigenst]ate change: 4e-08 eV^2 / valence electron
 Maximum number of scf [iter]ations: 333
 (Square brackets indicate name in SCF output, whereas a 'c' in
 the SCF output indicates the quantity has converged.)

Symmetries present (total): 4

  ( 1  0  0)  ( 0  1  0)  ( 0 -1  0)  (-1  0  0)
  ( 0  1  0)  ( 1  0  0)  (-1  0  0)  ( 0 -1  0)
  ( 0  0  1)  ( 0  0 -1)  ( 0  0  1)  ( 0  0 -1)

175 k-points: 5 x 5 x 7 Monkhorst-Pack grid
54 k-points in the irreducible part of the Brillouin zone
       k-points in crystal coordinates                weights
   0:     0.00000000    0.00000000    0.00000000          1/175
   1:     0.00000000    0.00000000    0.14285714          2/175
   2:     0.00000000    0.00000000    0.28571429          2/175
   3:     0.00000000    0.00000000    0.42857143          2/175
   4:     0.20000000   -0.20000000   -0.42857143          2/175
   5:     0.20000000   -0.20000000   -0.28571429          2/175
   6:     0.20000000   -0.20000000   -0.14285714          2/175
   7:     0.20000000   -0.20000000    0.00000000          2/175
   8:     0.20000000   -0.20000000    0.14285714          2/175
   9:     0.20000000   -0.20000000    0.28571429          2/175
          ...
  53:     0.40000000    0.40000000    0.42857143          4/175

Wave functions: Plane wave expansion
  Cutoff energy: 540.000 eV
  Number of coefficients (min, max): 1889, 1943
  Pulay-stress correction: 0.000000 eV/Ang^3 (de/decut=0.000000)
  Using Numpy's FFT
  ScaLapack parameters: grid=1x1, blocksize=None
  Wavefunction extrapolation:
    Improved wavefunction reuse through dual PAW basis

Occupation numbers: Fermi-Dirac: width=0.1000 eV

Eigensolver
   Davidson(niter=2)

Densities:
  Coarse grid: 18*18*42 grid
  Fine grid: 36*36*84 grid
  Total Charge: 0.000000

Density mixing:
  Method: difference
  Backend: pulay
  Linear mixing parameter: 0.05
  Mixing with 5 old densities
  Damping of long wave oscillations: 50

Hamiltonian:
  XC and Coulomb potentials evaluated on a 36*36*84 grid
  Using the PBE Exchange-Correlation functional
  External potential:
    NoExternalPotential

XC parameters: PBE with 2 nearest neighbor stencil

Total number of cores used: 1

Number of atoms: 8
Number of atomic orbitals: 32
Number of bands in calculation: 24
Number of valence electrons: 28
Bands to converge: occupied

... initialized

Initializing position-dependent things.

Density initialized from atomic densities
Creating initial wave functions:
  24 bands from LCAO basis set

             O

           LiO

[...]

           O Li

           O
        Li

Positions:
   0 Li     0.000000    0.000000    3.851761    ( 0.0000,  0.0000,  0.6000)
   1 Li     0.000000    0.000000    0.000000    ( 0.0000,  0.0000,  0.6000)
   2 Li     1.590181   -0.918093    5.777642    ( 0.0000,  0.0000,  0.6000)
   3 Li     1.590181    0.918093    1.925881    ( 0.0000,  0.0000,  0.6000)
   4 O      1.590181   -0.918093    1.150213    ( 0.0000,  0.0000,  0.6000)
   5 O      1.590181    0.918093    5.001974    ( 0.0000,  0.0000,  0.6000)
   6 O      1.590181    0.918093    6.553309    ( 0.0000,  0.0000,  0.6000)
   7 O      1.590181   -0.918093    2.701548    ( 0.0000,  0.0000,  0.6000)

Unit cell:
           periodic     x           y           z      points  spacing
  1. axis:    yes    1.590181   -2.754274    0.000000    18     0.1530
  2. axis:    yes    1.590181    2.754274    0.000000    18     0.1530
  3. axis:    yes    0.000000    0.000000    7.703522    42     0.1834

  Lengths:   3.180362   3.180362   7.703522
  Angles:   90.000000  90.000000 119.999995

Effective grid spacing dv^(1/3) = 0.1705

     iter     time        total  log10-change:  magmom
                         energy  eigst   dens
iter:   1 17:34:26   -38.762497                  +4.6307
iter:   2 17:34:43   -39.652566  -1.74  -0.89    +1.3892
iter:   3 17:35:00   -38.797128  -1.54  -0.92    -0.0092
iter:   4 17:35:17   -39.181301  -1.43  -1.24    -0.0046
iter:   5 17:35:35   -38.672172  -1.73  -1.30    -0.0004
iter:   6 17:35:52   -38.672990  -3.43  -2.10    -0.0001
iter:   7 17:36:09   -38.692652  -2.88  -2.12    -0.0000
iter:   8 17:36:27   -38.671138  -3.10  -1.91    +0.0000
iter:   9 17:36:46   -38.670651  -4.54  -2.44    +0.0000
iter:  10 17:37:05   -38.671303c -5.30  -2.53    -0.0000
iter:  11 17:37:24   -38.670593c -3.93  -2.55    -0.0000
iter:  12 17:37:43   -38.670489c -5.67  -3.17    -0.0000
iter:  13 17:38:02   -38.670484c -6.57  -3.68    -0.0000
iter:  14 17:38:22   -38.670493c -6.50  -3.77    -0.0000
iter:  15 17:38:42   -38.670487c -6.78  -3.79    -0.0000
iter:  16 17:39:02   -38.670488c -6.76  -4.05c   -0.0000
iter:  17 17:39:22   -38.670487c -7.05  -3.95    -0.0000
iter:  18 17:39:42   -38.670488c -8.25c -4.37c   -0.0000

Converged after 18 iterations.

Dipole moment: (0.000000, -0.000000, -0.000000) |e|*Ang

Total magnetic moment: (0.000000, 0.000000, -0.000000)
Local magnetic moments:
   0 Li ( 0.000000,  0.000000, -0.000000)
   1 Li ( 0.000000,  0.000000, -0.000000)
   2 Li ( 0.000000,  0.000000,  0.000000)
   3 Li ( 0.000000,  0.000000,  0.000000)
   4 O  ( 0.000000,  0.000000, -0.000000)
   5 O  ( 0.000000,  0.000000, -0.000000)
   6 O  ( 0.000000,  0.000000, -0.000000)
   7 O  ( 0.000000,  0.000000, -0.000000)

Energy contributions relative to reference atoms: (reference = -8974.560486)

Kinetic:        +36.674930
Potential:      -34.125532
External:        +0.000000
XC:             -41.635614
Entropy (-ST):   -0.000009
Local:           +0.415733
Free energy:    -38.670492
Extrapolated:   -38.670488

Spin contamination: 0.000000 electrons
Showing only first 2 kpts
                      Up                     Down
 Kpt  Band  Eigenvalues  Occupancy  Eigenvalues  Occupancy
  0    12      2.65868    0.99999      2.65868    0.99999
  0    13      2.65881    0.99999      2.65881    0.99999
  0    14      4.71089    0.00015      4.71089    0.00015
  0    15      6.95268    0.00000      6.95268    0.00000

  1    12      2.64206    0.99999      2.64206    0.99999
  1    13      2.64219    0.99999      2.64219    0.99999
  1    14      4.82485    0.00005      4.82485    0.00005
  1    15      6.83128    0.00000      6.83128    0.00000

Fermi level: 3.82717

Gap: 2.052 eV
Transition (v -> c):
  (s=0, k=0, n=13, [0.00, 0.00, 0.00]) -> (s=1, k=0, n=14, [0.00, 0.00, 0.00])