User:   gabrielbirnbaum@Gabriels-MacBook-Pro.local
Date:   Mon Jul 25 10:48:28 2022
Arch:   x86_64
Pid:    69738
Python: 3.9.13
gpaw:   /Users/gabrielbirnbaum/PycharmProjects/nanolithia/venv/lib/python3.9/site-packages/gpaw
_gpaw:  /Users/gabrielbirnbaum/PycharmProjects/nanolithia/venv/lib/python3.9/site-packages/
        _gpaw.cpython-39-darwin.so
ase:    /Users/gabrielbirnbaum/PycharmProjects/nanolithia/venv/lib/python3.9/site-packages/ase (version 3.22.1)
numpy:  /Users/gabrielbirnbaum/PycharmProjects/nanolithia/venv/lib/python3.9/site-packages/numpy (version 1.23.0)
scipy:  /Users/gabrielbirnbaum/PycharmProjects/nanolithia/venv/lib/python3.9/site-packages/scipy (version 1.8.1)
units:  Angstrom and eV
cores: 1
OpenMP: False
OMP_NUM_THREADS: 1

Input parameters:
  convergence: {density: 0.001,
                eigenstates: 0.0001,
                energy: 0.0002}
  kpts: {gamma: True,
         size: (5, 5, 5)}
  mode: {ecut: 575.0,
         name: pw}
  setups: {O: :p,0.76,0}
  spinpol: False

System changes: positions, numbers, cell, pbc, initial_charges, initial_magmoms

Initialize ...

Li-setup:
  name: Lithium
  id: b73562207f97a71b6967473b66fe8b65
  Z: 3.0
  valence: 1
  core: 2
  charge: 0.0
  file: /Users/gabrielbirnbaum/dft_learning/DIR/gpaw-setups-0.9.20000/Li.LDA.gz
  compensation charges: gauss, rc=0.33, lmax=2
  cutoffs: 1.91(filt), 2.55(core),
  valence states:
                energy  radius
    2s(1.00)    -2.874   1.058
    2p(0.00)    -1.126   1.058
    *s          24.338   1.058

  Using partial waves for Li as LCAO basis

O-setup:
  name: Oxygen
  id: 9b9d51c344dea68c822856295a461509
  Z: 8.0
  valence: 6
  core: 2
  charge: 0.0
  Hubbard U: 0.760000 eV (l=1, scale=False)
  file: /Users/gabrielbirnbaum/dft_learning/DIR/gpaw-setups-0.9.20000/O.LDA.gz
  compensation charges: gauss, rc=0.21, lmax=2
  cutoffs: 1.17(filt), 0.83(core),
  valence states:
                energy  radius
    2s(2.00)   -23.752   0.688
    2p(4.00)    -9.195   0.598
    *s           3.459   0.688
    *p          18.016   0.598
    *d           0.000   0.619

  Using partial waves for O as LCAO basis

Reference energy: -8910.067456

Spin-paired calculation

Convergence criteria:
 Maximum [total energy] change in last 3 cyles: 0.0002 eV / electron
 Maximum integral of absolute [dens]ity change: 0.001 electrons / valence electron
 Maximum integral of absolute [eigenst]ate change: 0.0001 eV^2 / valence electron
 Maximum number of scf [iter]ations: 333
 (Square brackets indicate name in SCF output, whereas a 'c' in
 the SCF output indicates the quantity has converged.)

Symmetries present (total): 4

  ( 1  0  0)  ( 0  1  0)  ( 0 -1  0)  (-1  0  0)
  ( 0  1  0)  ( 1  0  0)  (-1  0  0)  ( 0 -1  0)
  ( 0  0  1)  ( 0  0 -1)  ( 0  0  1)  ( 0  0 -1)

125 k-points: 5 x 5 x 5 Monkhorst-Pack grid
39 k-points in the irreducible part of the Brillouin zone
       k-points in crystal coordinates                weights
   0:     0.00000000    0.00000000    0.00000000          1/125
   1:     0.00000000    0.00000000    0.20000000          2/125
   2:     0.00000000    0.00000000    0.40000000          2/125
   3:     0.20000000   -0.20000000   -0.40000000          2/125
   4:     0.20000000   -0.20000000   -0.20000000          2/125
   5:     0.20000000   -0.20000000    0.00000000          2/125
   6:     0.20000000   -0.20000000    0.20000000          2/125
   7:     0.20000000   -0.20000000    0.40000000          2/125
   8:     0.20000000    0.00000000   -0.40000000          4/125
   9:     0.20000000    0.00000000   -0.20000000          4/125
          ...
  38:     0.40000000    0.40000000    0.40000000          4/125

Wave functions: Plane wave expansion
  Cutoff energy: 575.000 eV
  Number of coefficients (min, max): 2107, 2124
  Pulay-stress correction: 0.000000 eV/Ang^3 (de/decut=0.000000)
  Using Numpy's FFT
  ScaLapack parameters: grid=1x1, blocksize=None
  Wavefunction extrapolation:
    Improved wavefunction reuse through dual PAW basis

Occupation numbers: Fermi-Dirac: width=0.1000 eV

Eigensolver
   Davidson(niter=2)

Densities:
  Coarse grid: 18*18*45 grid
  Fine grid: 36*36*90 grid
  Total Charge: 0.000000

Density mixing:
  Method: separate
  Backend: pulay
  Linear mixing parameter: 0.05
  Mixing with 5 old densities
  Damping of long wave oscillations: 50

Hamiltonian:
  XC and Coulomb potentials evaluated on a 36*36*90 grid
  Using the LDA Exchange-Correlation functional
  External potential:
    NoExternalPotential

Total number of cores used: 1

Number of atoms: 8
Number of atomic orbitals: 32
Number of bands in calculation: 21
Number of valence electrons: 28
Bands to converge: occupied

... initialized

Initializing position-dependent things.

Density initialized from atomic densities
Creating initial wave functions:
  21 bands from LCAO basis set

             O

           LiO

[...]

           O Li

           O
        Li

Positions:
   0 Li     0.000000    0.000000    3.851761    ( 0.0000,  0.0000,  0.0000)
   1 Li     0.000000    0.000000    0.000000    ( 0.0000,  0.0000,  0.0000)
   2 Li     1.590181   -0.918093    5.777642    ( 0.0000,  0.0000,  0.0000)
   3 Li     1.590181    0.918093    1.925881    ( 0.0000,  0.0000,  0.0000)
   4 O      1.590181   -0.918093    1.150213    ( 0.0000,  0.0000,  0.0000)
   5 O      1.590181    0.918093    5.001974    ( 0.0000,  0.0000,  0.0000)
   6 O      1.590181    0.918093    6.553309    ( 0.0000,  0.0000,  0.0000)
   7 O      1.590181   -0.918093    2.701548    ( 0.0000,  0.0000,  0.0000)

Unit cell:
           periodic     x           y           z      points  spacing
  1. axis:    yes    1.590181   -2.754274    0.000000    18     0.1530
  2. axis:    yes    1.590181    2.754274    0.000000    18     0.1530
  3. axis:    yes    0.000000    0.000000    7.703522    45     0.1712

  Lengths:   3.180362   3.180362   7.703522
  Angles:   90.000000  90.000000 119.999995

Effective grid spacing dv^(1/3) = 0.1666

     iter     time        total  log10-change:
                         energy  eigst   dens
iter:   1 10:48:42   -42.127269
iter:   2 10:48:50   -41.944170  -1.66  -0.90
iter:   3 10:48:57   -41.045754  -1.40  -0.94
iter:   4 10:49:04   -41.299118  -1.38  -1.28
iter:   5 10:49:11   -40.885368  -1.54  -1.35
iter:   6 10:49:18   -40.885999  -3.36  -2.14
iter:   7 10:49:25   -40.931207  -2.25  -2.15
iter:   8 10:49:31   -40.880938  -2.60  -1.80
iter:   9 10:49:38   -40.880499  -4.03c -2.49
iter:  10 10:49:44   -40.880898c -3.54  -2.60
iter:  11 10:49:50   -40.879999c -4.44c -2.71
iter:  12 10:49:57   -40.879983c -5.39c -3.49c

Converged after 12 iterations.

Dipole moment: (0.000000, 0.000000, -0.000000) |e|*Ang

Energy contributions relative to reference atoms: (reference = -8910.067456)

Kinetic:        +36.265977
Potential:      -34.983809
External:        +0.000000
XC:             -42.690791
Entropy (-ST):   -0.000015
Local:           +0.528648
Free energy:    -40.879990
Extrapolated:   -40.879983

Showing only first 2 kpts
 Kpt  Band  Eigenvalues  Occupancy
  0    12      2.29723    1.99997
  0    13      2.29727    1.99997
  0    14      4.25435    0.00049
  0    15      6.49309    0.00000

  1    12      2.27558    1.99998
  1    13      2.27561    1.99998
  1    14      4.48612    0.00005
  1    15      6.26360    0.00000

Fermi level: 3.42382

Gap: 1.955 eV
Transition (v -> c):
  (s=0, k=10, n=13, [0.20, 0.00, 0.00]) -> (s=0, k=0, n=14, [0.00, 0.00, 0.00])
Timing:                              incl.     excl.
Hamiltonian:                         0.098     0.004   0.0% |
 Atomic:                             0.061     0.003   0.0% |
  XC Correction:                     0.058     0.058   0.1% |
 Calculate atomic Hamiltonians:      0.013     0.013   0.0% |
 Communicate:                        0.000     0.000   0.0% |
 Initialize Hamiltonian:             0.000     0.000   0.0% |
 Poisson:                            0.000     0.000   0.0% |
 XC 3D grid:                         0.019     0.019   0.0% |
LCAO initialization:                 7.453     0.187   0.2% |
 LCAO eigensolver:                   1.015     0.001   0.0% |
  Calculate projections:             0.002     0.002   0.0% |
  DenseAtomicCorrection:             0.009     0.009   0.0% |
  Distribute overlap matrix:         0.001     0.001   0.0% |
  Orbital Layouts:                   0.019     0.019   0.0% |
  Potential matrix:                  0.941     0.941   1.1% |
  Sum over cells:                    0.041     0.041   0.0% |
 LCAO to grid:                       4.820     4.820   5.4% |-|
 Set positions (LCAO WFS):           1.432     0.295   0.3% |
  Basic WFS set positions:           0.001     0.001   0.0% |
  Basis functions set positions:     0.000     0.000   0.0% |
  P tci:                             0.458     0.458   0.5% |
  ST tci:                            0.624     0.624   0.7% |
  mktci:                             0.054     0.054   0.1% |
PWDescriptor:                        0.028     0.028   0.0% |
SCF-cycle:                          80.953     0.131   0.1% |
 Davidson:                          72.407     6.394   7.2% |--|
  Apply H:                          14.694    14.521  16.3% |------|
   HMM T:                            0.172     0.172   0.2% |
  Subspace diag:                    18.479     0.033   0.0% |
   calc_h_matrix:                   17.983     0.349   0.4% |
    Apply H:                        17.634    17.470  19.6% |-------|
     HMM T:                          0.164     0.164   0.2% |
   diagonalize:                      0.144     0.144   0.2% |
   rotate_psi:                       0.319     0.319   0.4% |
  calc. matrices:                   31.605     2.646   3.0% ||
   Apply H:                         28.960    28.600  32.1% |------------|
    HMM T:                           0.360     0.360   0.4% |
  diagonalize:                       0.624     0.624   0.7% |
  rotate_psi:                        0.610     0.610   0.7% |
 Density:                            7.021     0.000   0.0% |
  Atomic density matrices:           0.063     0.063   0.1% |
  Mix:                               0.322     0.322   0.4% |
  Multipole moments:                 0.002     0.002   0.0% |
  Pseudo density:                    6.634     6.616   7.4% |--|
   Symmetrize density:               0.018     0.018   0.0% |
 Hamiltonian:                        1.226     0.013   0.0% |
  Atomic:                            0.797     0.039   0.0% |
   XC Correction:                    0.758     0.758   0.9% |
  Calculate atomic Hamiltonians:     0.204     0.204   0.2% |
  Communicate:                       0.000     0.000   0.0% |
  Poisson:                           0.004     0.004   0.0% |
  XC 3D grid:                        0.207     0.207   0.2% |
 Orthonormalize:                     0.168     0.003   0.0% |
  calc_s_matrix:                     0.076     0.076   0.1% |
  inverse-cholesky:                  0.003     0.003   0.0% |
  projections:                       0.072     0.072   0.1% |
  rotate_psi_s:                      0.013     0.013   0.0% |
Set symmetry:                        0.004     0.004   0.0% |
Other:                               0.609     0.609   0.7% |
Total:                                        89.146 100.0%