User:   gabrielbirnbaum@Gabriels-MacBook-Pro.local
Date:   Sun Jul 24 21:26:10 2022
Arch:   x86_64
Pid:    51106
Python: 3.9.13
gpaw:   /Users/gabrielbirnbaum/PycharmProjects/nanolithia/venv/lib/python3.9/site-packages/gpaw
_gpaw:  /Users/gabrielbirnbaum/PycharmProjects/nanolithia/venv/lib/python3.9/site-packages/
        _gpaw.cpython-39-darwin.so
ase:    /Users/gabrielbirnbaum/PycharmProjects/nanolithia/venv/lib/python3.9/site-packages/ase (version 3.22.1)
numpy:  /Users/gabrielbirnbaum/PycharmProjects/nanolithia/venv/lib/python3.9/site-packages/numpy (version 1.23.0)
scipy:  /Users/gabrielbirnbaum/PycharmProjects/nanolithia/venv/lib/python3.9/site-packages/scipy (version 1.8.1)
units:  Angstrom and eV
cores: 1
OpenMP: False
OMP_NUM_THREADS: 1

Input parameters:
  convergence: {density: 0.001,
                eigenstates: 0.0001,
                energy: 0.0002}
  kpts: {gamma: True,
         size: (10, 10, 10)}
  mode: {ecut: 750.0,
         name: pw}
  setups: {O: :p,0.76,0}
  spinpol: True
  xc: PBE

System changes: positions, numbers, cell, pbc, initial_charges, initial_magmoms

Initialize ...

Li-setup:
  name: Lithium
  id: 830b4218f175192f93f959cfc0aad614
  Z: 3.0
  valence: 1
  core: 2
  charge: 0.0
  file: /Users/gabrielbirnbaum/dft_learning/DIR/gpaw-setups-0.9.20000/Li.PBE.gz
  compensation charges: gauss, rc=0.33, lmax=2
  cutoffs: 1.91(filt), 2.55(core),
  valence states:
                energy  radius
    2s(1.00)    -2.874   1.058
    2p(0.00)    -1.090   1.058
    *s          24.337   1.058

  Using partial waves for Li as LCAO basis

O-setup:
  name: Oxygen
  id: 32ecd46bf208036f09c70b0ec9a88b78
  Z: 8.0
  valence: 6
  core: 2
  charge: 0.0
  Hubbard U: 0.760000 eV (l=1, scale=False)
  file: /Users/gabrielbirnbaum/dft_learning/DIR/gpaw-setups-0.9.20000/O.PBE.gz
  compensation charges: gauss, rc=0.21, lmax=2
  cutoffs: 1.17(filt), 0.83(core),
  valence states:
                energy  radius
    2s(2.00)   -23.961   0.688
    2p(4.00)    -9.029   0.598
    *s           3.251   0.688
    *p          18.182   0.598
    *d           0.000   0.619

  Using partial waves for O as LCAO basis

Reference energy: -8974.560486

Spin-polarized calculation.
Magnetic moment: 0.000000

Convergence criteria:
 Maximum [total energy] change in last 3 cyles: 0.0002 eV / electron
 Maximum integral of absolute [dens]ity change: 0.001 electrons / valence electron
 Maximum integral of absolute [eigenst]ate change: 0.0001 eV^2 / valence electron
 Maximum number of scf [iter]ations: 333
 (Square brackets indicate name in SCF output, whereas a 'c' in
 the SCF output indicates the quantity has converged.)

Symmetries present (total): 4

  ( 1  0  0)  ( 0  1  0)  ( 0 -1  0)  (-1  0  0)
  ( 0  1  0)  ( 1  0  0)  (-1  0  0)  ( 0 -1  0)
  ( 0  0  1)  ( 0  0 -1)  ( 0  0  1)  ( 0  0 -1)

1000 k-points: 10 x 10 x 10 Monkhorst-Pack grid + [1/20,1/20,1/20]
282 k-points in the irreducible part of the Brillouin zone
       k-points in crystal coordinates                weights
   0:     0.00000000    0.00000000    0.00000000          1/1000
   1:     0.00000000    0.00000000    0.10000000          2/1000
   2:     0.00000000    0.00000000    0.20000000          2/1000
   3:     0.00000000    0.00000000    0.30000000          2/1000
   4:     0.00000000    0.00000000    0.40000000          2/1000
   5:     0.00000000    0.00000000    0.50000000          1/1000
   6:     0.10000000   -0.10000000   -0.40000000          2/1000
   7:     0.10000000   -0.10000000   -0.30000000          2/1000
   8:     0.10000000   -0.10000000   -0.20000000          2/1000
   9:     0.10000000   -0.10000000   -0.10000000          2/1000
          ...
 281:     0.50000000    0.50000000    0.50000000          1/1000

Wave functions: Plane wave expansion
  Cutoff energy: 750.000 eV
  Number of coefficients (min, max): 3114, 3182
  Pulay-stress correction: 0.000000 eV/Ang^3 (de/decut=0.000000)
  Using Numpy's FFT
  ScaLapack parameters: grid=1x1, blocksize=None
  Wavefunction extrapolation:
    Improved wavefunction reuse through dual PAW basis

Occupation numbers: Fermi-Dirac: width=0.1000 eV

Eigensolver
   Davidson(niter=2)

Densities:
  Coarse grid: 21*21*49 grid
  Fine grid: 42*42*98 grid
  Total Charge: 0.000000

Density mixing:
  Method: difference
  Backend: pulay
  Linear mixing parameter: 0.05
  Mixing with 5 old densities
  Damping of long wave oscillations: 50

Hamiltonian:
  XC and Coulomb potentials evaluated on a 42*42*98 grid
  Using the PBE Exchange-Correlation functional
  External potential:
    NoExternalPotential

XC parameters: PBE with 2 nearest neighbor stencil

Total number of cores used: 1

Number of atoms: 8
Number of atomic orbitals: 32
Number of bands in calculation: 21
Number of valence electrons: 28
Bands to converge: occupied

... initialized

Initializing position-dependent things.

Density initialized from atomic densities
Creating initial wave functions:
  21 bands from LCAO basis set

             O

           LiO

[...]

           O Li

           O
        Li

Positions:
   0 Li     0.000000    0.000000    3.851761    ( 0.0000,  0.0000,  0.0000)
   1 Li     0.000000    0.000000    0.000000    ( 0.0000,  0.0000,  0.0000)
   2 Li     1.590181   -0.918093    5.777642    ( 0.0000,  0.0000,  0.0000)
   3 Li     1.590181    0.918093    1.925881    ( 0.0000,  0.0000,  0.0000)
   4 O      1.590181   -0.918093    1.150213    ( 0.0000,  0.0000,  0.0000)
   5 O      1.590181    0.918093    5.001974    ( 0.0000,  0.0000,  0.0000)
   6 O      1.590181    0.918093    6.553309    ( 0.0000,  0.0000,  0.0000)
   7 O      1.590181   -0.918093    2.701548    ( 0.0000,  0.0000,  0.0000)

Unit cell:
           periodic     x           y           z      points  spacing
  1. axis:    yes    1.590181   -2.754274    0.000000    21     0.1312
  2. axis:    yes    1.590181    2.754274    0.000000    21     0.1312
  3. axis:    yes    0.000000    0.000000    7.703522    49     0.1572

  Lengths:   3.180362   3.180362   7.703522
  Angles:   90.000000  90.000000 119.999995

Effective grid spacing dv^(1/3) = 0.1462

     iter     time        total  log10-change:  magmom
                         energy  eigst   dens
iter:   1 21:39:59   -38.706032                  +0.0000
iter:   2 21:41:44   -38.502319  -1.59  -0.89    +0.0000
iter:   3 21:43:29   -37.582064  -1.28  -0.93    +0.0000
iter:   4 21:45:17   -38.039801  -1.23  -1.26    +0.0000
iter:   5 21:46:58   -37.500936  -1.37  -1.30    +0.0000
iter:   6 21:48:37   -37.502010  -3.16  -2.11    +0.0000
iter:   7 21:50:14   -37.554041  -2.16  -2.13    +0.0000
iter:   8 21:51:55   -37.514696  -1.93  -1.80    +0.0000
iter:   9 21:53:36   -37.506866  -4.15c -2.07    +0.0000
iter:  10 21:55:15   -37.506290  -5.59c -2.19    +0.0000
iter:  11 21:56:53   -37.499322  -2.88  -2.21    +0.0000
iter:  12 21:58:32   -37.499229  -5.19c -3.15c   +0.0000
iter:  13 22:00:11   -37.499212c -5.64c -3.43c   +0.0000

Converged after 13 iterations.

Dipole moment: (0.000000, -0.000000, -0.000000) |e|*Ang

Total magnetic moment: (0.000000, 0.000000, 0.000000)
Local magnetic moments:
   0 Li ( 0.000000,  0.000000,  0.000000)
   1 Li ( 0.000000,  0.000000,  0.000000)
   2 Li ( 0.000000,  0.000000,  0.000000)
   3 Li ( 0.000000,  0.000000,  0.000000)
   4 O  ( 0.000000,  0.000000,  0.000000)
   5 O  ( 0.000000,  0.000000, -0.000000)
   6 O  ( 0.000000,  0.000000,  0.000000)
   7 O  ( 0.000000,  0.000000, -0.000000)

Energy contributions relative to reference atoms: (reference = -8974.560486)

Kinetic:        +42.508903
Potential:      -41.151456
External:        +0.000000
XC:             -39.771363
Entropy (-ST):   -0.000006
Local:           +0.914706
Free energy:    -37.499215
Extrapolated:   -37.499212

Spin contamination: 0.000000 electrons
Showing only first 2 kpts
                      Up                     Down
 Kpt  Band  Eigenvalues  Occupancy  Eigenvalues  Occupancy
  0    12      2.64260    0.99999      2.64260    0.99999
  0    13      2.64262    0.99999      2.64262    0.99999
  0    14      4.77158    0.00010      4.77158    0.00010
  0    15      7.04155    0.00000      7.04155    0.00000

  1    12      2.63692    0.99999      2.63692    0.99999
  1    13      2.63693    0.99999      2.63693    0.99999
  1    14      4.83182    0.00005      4.83182    0.00005
  1    15      6.97940    0.00000      6.97940    0.00000

Fermi level: 3.84976

Gap: 2.118 eV
Transition (v -> c):
  (s=0, k=20, n=13, [0.10, 0.00, 0.00]) -> (s=0, k=0, n=14, [0.00, 0.00, 0.00])
Timing:                              incl.     excl.
Hamiltonian:                         0.308     0.001   0.0% |
 Atomic:                             0.203     0.003   0.0% |
  XC Correction:                     0.200     0.200   0.0% |
 Calculate atomic Hamiltonians:      0.015     0.015   0.0% |
 Communicate:                        0.000     0.000   0.0% |
 Initialize Hamiltonian:             0.000     0.000   0.0% |
 Poisson:                            0.001     0.001   0.0% |
 XC 3D grid:                         0.087     0.087   0.0% |
LCAO initialization:               736.669     0.035   0.0% |
 LCAO eigensolver:                 647.605     0.025   0.0% |
  Calculate projections:             0.048     0.048   0.0% |
  DenseAtomicCorrection:             0.106     0.106   0.0% |
  Distribute overlap matrix:         0.014     0.014   0.0% |
  Orbital Layouts:                   0.282     0.282   0.0% |
  Potential matrix:                646.636   646.636  31.7% |------------|
  Sum over cells:                    0.493     0.493   0.0% |
 LCAO to grid:                      83.767    83.767   4.1% |-|
 Set positions (LCAO WFS):           5.262     0.718   0.0% |
  Basic WFS set positions:           0.001     0.001   0.0% |
  Basis functions set positions:     0.000     0.000   0.0% |
  P tci:                             2.041     2.041   0.1% |
  ST tci:                            2.461     2.461   0.1% |
  mktci:                             0.041     0.041   0.0% |
PWDescriptor:                        0.138     0.138   0.0% |
SCF-cycle:                        1301.542     1.852   0.1% |
 Davidson:                        1186.497    88.688   4.3% |-|
  Apply H:                         258.812   256.099  12.5% |----|
   HMM T:                            2.713     2.713   0.1% |
  Subspace diag:                   270.599     0.481   0.0% |
   calc_h_matrix:                  262.120     5.293   0.3% |
    Apply H:                       256.826   254.126  12.4% |----|
     HMM T:                          2.701     2.701   0.1% |
   diagonalize:                      1.690     1.690   0.1% |
   rotate_psi:                       6.307     6.307   0.3% |
  calc. matrices:                  548.501    33.774   1.7% ||
   Apply H:                        514.727   509.568  25.0% |---------|
    HMM T:                           5.159     5.159   0.3% |
  diagonalize:                       8.315     8.315   0.4% |
  rotate_psi:                       11.581    11.581   0.6% |
 Density:                          107.353     0.000   0.0% |
  Atomic density matrices:           0.717     0.717   0.0% |
  Mix:                               0.447     0.447   0.0% |
  Multipole moments:                 0.002     0.002   0.0% |
  Pseudo density:                  106.188   106.142   5.2% |-|
   Symmetrize density:               0.046     0.046   0.0% |
 Hamiltonian:                        4.077     0.019   0.0% |
  Atomic:                            2.731     0.039   0.0% |
   XC Correction:                    2.691     2.691   0.1% |
  Calculate atomic Hamiltonians:     0.141     0.141   0.0% |
  Communicate:                       0.000     0.000   0.0% |
  Poisson:                           0.008     0.008   0.0% |
  XC 3D grid:                        1.179     1.179   0.1% |
 Orthonormalize:                     1.763     0.037   0.0% |
  calc_s_matrix:                     0.237     0.237   0.0% |
  inverse-cholesky:                  0.049     0.049   0.0% |
  projections:                       1.201     1.201   0.1% |
  rotate_psi_s:                      0.240     0.240   0.0% |
Set symmetry:                        0.018     0.018   0.0% |
Other:                               2.836     2.836   0.1% |
Total:                                      2041.511 100.0%