User:   gabrielbirnbaum@Gabriels-MacBook-Pro.local
Date:   Sun Aug  7 17:31:15 2022
Arch:   x86_64
Pid:    93006
Python: 3.9.13
gpaw:   /Users/gabrielbirnbaum/PycharmProjects/nanolithia/venv/lib/python3.9/site-packages/gpaw
_gpaw:  /Users/gabrielbirnbaum/PycharmProjects/nanolithia/venv/lib/python3.9/site-packages/
        _gpaw.cpython-39-darwin.so
ase:    /Users/gabrielbirnbaum/PycharmProjects/nanolithia/venv/lib/python3.9/site-packages/ase (version 3.22.1)
numpy:  /Users/gabrielbirnbaum/PycharmProjects/nanolithia/venv/lib/python3.9/site-packages/numpy (version 1.23.0)
scipy:  /Users/gabrielbirnbaum/PycharmProjects/nanolithia/venv/lib/python3.9/site-packages/scipy (version 1.8.1)
units:  Angstrom and eV
cores: 1
OpenMP: False
OMP_NUM_THREADS: 1

Input parameters:
  kpts: {gamma: True,
         size: (5, 5, 7)}
  mode: {ecut: 540.0,
         name: pw}
  xc: PBE

System changes: positions, numbers, cell, pbc, initial_charges, initial_magmoms

Initialize ...

Li-setup:
  name: Lithium
  id: 830b4218f175192f93f959cfc0aad614
  Z: 3.0
  valence: 1
  core: 2
  charge: 0.0
  file: /Users/gabrielbirnbaum/PycharmProjects/nanolithia/venv/lib/python3.9/site-packages/ase/vibrations/setups/gpaw-setups-0.9.20000/Li.PBE.gz
  compensation charges: gauss, rc=0.33, lmax=2
  cutoffs: 1.91(filt), 2.55(core),
  valence states:
                energy  radius
    2s(1.00)    -2.874   1.058
    2p(0.00)    -1.090   1.058
    *s          24.337   1.058

  Using partial waves for Li as LCAO basis

O-setup:
  name: Oxygen
  id: 32ecd46bf208036f09c70b0ec9a88b78
  Z: 8.0
  valence: 6
  core: 2
  charge: 0.0
  file: /Users/gabrielbirnbaum/PycharmProjects/nanolithia/venv/lib/python3.9/site-packages/ase/vibrations/setups/gpaw-setups-0.9.20000/O.PBE.gz
  compensation charges: gauss, rc=0.21, lmax=2
  cutoffs: 1.17(filt), 0.83(core),
  valence states:
                energy  radius
    2s(2.00)   -23.961   0.688
    2p(4.00)    -9.029   0.598
    *s           3.251   0.688
    *p          18.182   0.598
    *d           0.000   0.619

  Using partial waves for O as LCAO basis

Reference energy: -8568.984845

Spin-polarized calculation.
Magnetic moment: 3.600000

Convergence criteria:
 Maximum [total energy] change in last 3 cyles: 0.0005 eV / electron
 Maximum integral of absolute [dens]ity change: 0.0001 electrons / valence electron
 Maximum integral of absolute [eigenst]ate change: 4e-08 eV^2 / valence electron
 Maximum number of scf [iter]ations: 333
 (Square brackets indicate name in SCF output, whereas a 'c' in
 the SCF output indicates the quantity has converged.)

Symmetries present (total): 4

  ( 1  0  0)  ( 1  0  0)  (-1  0  0)  (-1  0  0)
  ( 0  1  0)  ( 0 -1  0)  ( 0  1  0)  ( 0 -1  0)
  ( 0  0  1)  ( 0  0 -1)  ( 0  0  1)  ( 0  0 -1)

175 k-points: 5 x 5 x 7 Monkhorst-Pack grid
54 k-points in the irreducible part of the Brillouin zone
       k-points in crystal coordinates                weights
   0:     0.00000000    0.00000000    0.00000000          1/175
   1:     0.00000000    0.00000000    0.14285714          2/175
   2:     0.00000000    0.00000000    0.28571429          2/175
   3:     0.00000000    0.00000000    0.42857143          2/175
   4:     0.00000000    0.20000000   -0.42857143          2/175
   5:     0.00000000    0.20000000   -0.28571429          2/175
   6:     0.00000000    0.20000000   -0.14285714          2/175
   7:     0.00000000    0.20000000    0.00000000          2/175
   8:     0.00000000    0.20000000    0.14285714          2/175
   9:     0.00000000    0.20000000    0.28571429          2/175
          ...
  53:     0.40000000    0.40000000    0.42857143          4/175

Wave functions: Plane wave expansion
  Cutoff energy: 540.000 eV
  Number of coefficients (min, max): 1629, 1683
  Pulay-stress correction: 0.000000 eV/Ang^3 (de/decut=0.000000)
  Using Numpy's FFT
  ScaLapack parameters: grid=1x1, blocksize=None
  Wavefunction extrapolation:
    Improved wavefunction reuse through dual PAW basis

Occupation numbers: Fermi-Dirac: width=0.1000 eV

Eigensolver
   Davidson(niter=2)

Densities:
  Coarse grid: 16*24*27 grid
  Fine grid: 32*48*54 grid
  Total Charge: 0.000000

Density mixing:
  Method: difference
  Backend: pulay
  Linear mixing parameter: 0.05
  Mixing with 5 old densities
  Damping of long wave oscillations: 50

Hamiltonian:
  XC and Coulomb potentials evaluated on a 32*48*54 grid
  Using the PBE Exchange-Correlation functional
  External potential:
    NoExternalPotential

XC parameters: PBE with 2 nearest neighbor stencil

Total number of cores used: 1

Number of atoms: 6
Number of atomic orbitals: 24
Number of bands in calculation: 22
Number of valence electrons: 26
Bands to converge: occupied

... initialized

Initializing position-dependent things.

Density initialized from atomic densities
Creating initial wave functions:
  22 bands from LCAO basis set

 * | O    |
 | O      |
 | | Li   |
 O |      |
 | .--O---.
 Li-----*

Positions:
   0 Li     1.480551    1.992835    2.448045    ( 0.0000,  0.0000,  0.6000)
   1 Li     0.000000    0.000000    0.000000    ( 0.0000,  0.0000,  0.6000)
   2 O      1.480551    2.518377    0.419218    ( 0.0000,  0.0000,  0.6000)
   3 O      1.480551    1.467292    4.476872    ( 0.0000,  0.0000,  0.6000)
   4 O      0.000000    0.525542    2.028827    ( 0.0000,  0.0000,  0.6000)
   5 O      0.000000    3.460127    2.867263    ( 0.0000,  0.0000,  0.6000)

Unit cell:
           periodic     x           y           z      points  spacing
  1. axis:    yes    2.961101    0.000000    0.000000    16     0.1851
  2. axis:    yes    0.000000    3.985669    0.000000    24     0.1661
  3. axis:    yes    0.000000    0.000000    4.896090    27     0.1813

  Lengths:   2.961101   3.985669   4.896090
  Angles:   90.000000  90.000000  90.000000

Effective grid spacing dv^(1/3) = 0.1773

     iter     time        total  log10-change:  magmom
                         energy  eigst   dens
iter:   1 17:40:57   -29.650231                  +3.5095
iter:   2 17:41:09   -29.863276  -1.76  -1.02    +2.4208
iter:   3 17:41:23   -29.242812  -1.58  -1.05    +1.9426
iter:   4 17:41:37   -29.256031  -2.14  -1.45    +1.9614
iter:   5 17:41:52   -29.251100  -2.15  -1.70    +1.9717
iter:   6 17:42:06   -29.227294  -3.31  -1.90    +1.9767
iter:   7 17:42:20   -29.237724  -2.63  -2.25    +1.9813
iter:   8 17:42:36   -29.223166  -3.20  -2.09    +1.9802
iter:   9 17:42:50   -29.223268  -4.46  -2.88    +1.9811
iter:  10 17:43:04   -29.223189c -5.72  -2.95    +1.9808
iter:  11 17:43:18   -29.223177c -5.79  -3.03    +1.9801
iter:  12 17:43:31   -29.223177c -6.55  -3.09    +1.9801
iter:  13 17:43:44   -29.223175c -6.65  -3.13    +1.9801
iter:  14 17:43:59   -29.223185c -6.92  -3.19    +1.9802
iter:  15 17:44:14   -29.223253c -6.07  -3.20    +1.9802
iter:  16 17:44:28   -29.223229c -6.14  -3.23    +1.9803
iter:  17 17:44:44   -29.223207c -6.26  -3.49    +1.9803
iter:  18 17:45:00   -29.222968c -4.85  -3.35    +1.9803
iter:  19 17:45:15   -29.223322c -4.57  -2.76    +1.9803
iter:  20 17:45:31   -29.223446c -4.91  -3.05    +1.9803
iter:  21 17:45:45   -29.223351c -6.57  -2.67    +1.9802
iter:  22 17:45:59   -29.223369c -6.57  -2.74    +1.9802
iter:  23 17:46:12   -29.223307c -5.45  -2.69    +1.9801
iter:  24 17:46:25   -29.223335c -7.36  -2.94    +1.9801
iter:  25 17:46:41   -29.223311c -6.77  -2.89    +1.9801
iter:  26 17:46:56   -29.223359c -5.34  -2.97    +1.9801
iter:  27 17:47:11   -29.223311c -5.68  -2.69    +1.9801
iter:  28 17:47:25   -29.223302c -6.74  -2.90    +1.9801
iter:  29 17:47:41   -29.223297c -7.22  -2.94    +1.9801
iter:  30 17:47:57   -29.223300c -8.54c -2.97    +1.9801
iter:  31 17:48:12   -29.223300c -8.66c -2.97    +1.9801
iter:  32 17:48:25   -29.223284c -7.75c -2.97    +1.9801
iter:  33 17:48:38   -29.223282c -7.69c -2.97    +1.9801
iter:  34 17:48:53   -29.223238c -6.23  -2.99    +1.9801
iter:  35 17:49:07   -29.223230c -5.80  -3.10    +1.9801
iter:  36 17:49:21   -29.223274c -5.12  -2.98    +1.9804
iter:  37 17:49:34   -29.223046c -5.23  -3.17    +1.9799
iter:  38 17:49:48   -29.222871c -3.77  -3.09    +1.9820
iter:  39 17:50:02   -29.223190c -4.35  -2.33    +1.9802
iter:  40 17:50:17   -29.223240c -4.87  -3.04    +1.9799
iter:  41 17:50:32   -29.223243c -6.80  -3.53    +1.9800
iter:  42 17:50:47   -29.223248c -7.03  -3.71    +1.9800
iter:  43 17:51:01   -29.223300c -5.26  -3.49    +1.9801
iter:  44 17:51:15   -29.223281c -5.88  -2.86    +1.9801
iter:  45 17:51:30   -29.223290c -6.85  -3.10    +1.9801
iter:  46 17:51:45   -29.223283c -7.95c -3.00    +1.9801
iter:  47 17:52:01   -29.223287c -8.79c -3.01    +1.9801
iter:  48 17:52:17   -29.223291c -8.72c -3.00    +1.9801
iter:  49 17:52:33   -29.223300c -8.38c -2.99    +1.9801
iter:  50 17:52:48   -29.223168c -6.42  -2.98    +1.9801
iter:  51 17:53:03   -29.223286c -6.63  -3.25    +1.9801
iter:  52 17:53:17   -29.223111c -5.88  -3.00    +1.9801
iter:  53 17:53:31   -29.223110c -7.46c -4.03c   +1.9801

Converged after 53 iterations.

Dipole moment: (0.000000, 0.000000, -0.000000) |e|*Ang

Total magnetic moment: (0.000000, 0.000000, 1.980077)
Local magnetic moments:
   0 Li ( 0.000000,  0.000000,  0.005319)
   1 Li ( 0.000000,  0.000000,  0.005103)
   2 O  ( 0.000000,  0.000000,  0.359220)
   3 O  ( 0.000000,  0.000000,  0.359220)
   4 O  ( 0.000000,  0.000000,  0.348878)
   5 O  ( 0.000000,  0.000000,  0.348878)

Energy contributions relative to reference atoms: (reference = -8568.984845)

Kinetic:        +27.193234
Potential:      -26.832573
External:        +0.000000
XC:             -29.900620
Entropy (-ST):   -0.087617
Local:           +0.360656
Free energy:    -29.266919
Extrapolated:   -29.223110

Spin contamination: 0.021163 electrons
Showing only first 2 kpts
                      Up                     Down
 Kpt  Band  Eigenvalues  Occupancy  Eigenvalues  Occupancy
  0    11      1.74808    0.99257      2.67096    0.01294
  0    12      1.85791    0.97804      3.11354    0.00016
  0    13      1.94271    0.95017      3.20570    0.00006
  0    14      8.23023    0.00000      8.72483    0.00000

  1    11      1.63847    0.99750      2.54615    0.04368
  1    12      1.86918    0.97548      3.12559    0.00014
  1    13      1.94724    0.94798      3.20958    0.00006
  1    14      8.12417    0.00000      8.59985    0.00000

Fermi level: 2.23752

No gap