User:   gabrielbirnbaum@Gabriels-MacBook-Pro.local
Date:   Wed Jul 20 14:45:48 2022
Arch:   x86_64
Pid:    30164
Python: 3.9.13
gpaw:   /Users/gabrielbirnbaum/PycharmProjects/nanolithia/venv/lib/python3.9/site-packages/gpaw
_gpaw:  /Users/gabrielbirnbaum/PycharmProjects/nanolithia/venv/lib/python3.9/site-packages/
        _gpaw.cpython-39-darwin.so
ase:    /Users/gabrielbirnbaum/PycharmProjects/nanolithia/venv/lib/python3.9/site-packages/ase (version 3.22.1)
numpy:  /Users/gabrielbirnbaum/PycharmProjects/nanolithia/venv/lib/python3.9/site-packages/numpy (version 1.23.0)
scipy:  /Users/gabrielbirnbaum/PycharmProjects/nanolithia/venv/lib/python3.9/site-packages/scipy (version 1.8.1)
units:  Angstrom and eV
cores: 1
OpenMP: False
OMP_NUM_THREADS: 1

Input parameters:
  convergence: {density: 0.001,
                eigenstates: 0.0001,
                energy: 0.0002}
  kpts: {gamma: True,
         size: (8, 8, 8)}
  mode: {ecut: 500.0,
         name: pw}
  spinpol: True
  xc: PBE

System changes: positions, numbers, cell, pbc, initial_charges, initial_magmoms

Initialize ...

Li-setup:
  name: Lithium
  id: 830b4218f175192f93f959cfc0aad614
  Z: 3.0
  valence: 1
  core: 2
  charge: 0.0
  file: /Users/gabrielbirnbaum/dft_learning/DIR/gpaw-setups-0.9.20000/Li.PBE.gz
  compensation charges: gauss, rc=0.33, lmax=2
  cutoffs: 1.91(filt), 2.55(core),
  valence states:
                energy  radius
    2s(1.00)    -2.874   1.058
    2p(0.00)    -1.090   1.058
    *s          24.337   1.058

  Using partial waves for Li as LCAO basis

O-setup:
  name: Oxygen
  id: 32ecd46bf208036f09c70b0ec9a88b78
  Z: 8.0
  valence: 6
  core: 2
  charge: 0.0
  file: /Users/gabrielbirnbaum/dft_learning/DIR/gpaw-setups-0.9.20000/O.PBE.gz
  compensation charges: gauss, rc=0.21, lmax=2
  cutoffs: 1.17(filt), 0.83(core),
  valence states:
                energy  radius
    2s(2.00)   -23.961   0.688
    2p(4.00)    -9.029   0.598
    *s           3.251   0.688
    *p          18.182   0.598
    *d           0.000   0.619

  Using partial waves for O as LCAO basis

Reference energy: -8568.984845

Spin-polarized calculation.
Magnetic moment: 0.000000

Convergence criteria:
 Maximum [total energy] change in last 3 cyles: 0.0002 eV / electron
 Maximum integral of absolute [dens]ity change: 0.001 electrons / valence electron
 Maximum integral of absolute [eigenst]ate change: 0.0001 eV^2 / valence electron
 Maximum number of scf [iter]ations: 333
 (Square brackets indicate name in SCF output, whereas a 'c' in
 the SCF output indicates the quantity has converged.)

Symmetries present (total): 4

  ( 1  0  0)  ( 1  0  0)  ( 0  0  1)  ( 0  0  1)
  ( 0  1  0)  ( 0 -1  0)  ( 0  1  0)  ( 0 -1  0)
  ( 0  0  1)  ( 0  0  1)  ( 1  0  0)  ( 1  0  0)

512 k-points: 8 x 8 x 8 Monkhorst-Pack grid + [1/16,1/16,1/16]
105 k-points in the irreducible part of the Brillouin zone
       k-points in crystal coordinates                weights
   0:     0.00000000    0.00000000    0.00000000          1/512
   1:     0.00000000    0.12500000    0.00000000          2/512
   2:     0.00000000    0.25000000    0.00000000          2/512
   3:     0.00000000    0.37500000    0.00000000          2/512
   4:     0.00000000    0.50000000    0.00000000          1/512
   5:     0.12500000    0.00000000   -0.12500000          2/512
   6:     0.12500000    0.00000000    0.00000000          4/512
   7:     0.12500000    0.00000000    0.12500000          2/512
   8:     0.12500000    0.12500000   -0.12500000          4/512
   9:     0.12500000    0.12500000    0.00000000          8/512
          ...
 104:     0.50000000    0.50000000    0.50000000          1/512

Wave functions: Plane wave expansion
  Cutoff energy: 500.000 eV
  Number of coefficients (min, max): 2512, 2612
  Pulay-stress correction: 0.000000 eV/Ang^3 (de/decut=0.000000)
  Using Numpy's FFT
  ScaLapack parameters: grid=1x1, blocksize=None
  Wavefunction extrapolation:
    Improved wavefunction reuse through dual PAW basis

Occupation numbers: Fermi-Dirac: width=0.1000 eV

Eigensolver
   Davidson(niter=2)

Densities:
  Coarse grid: 25*25*25 grid
  Fine grid: 50*50*50 grid
  Total Charge: 0.000000

Density mixing:
  Method: difference
  Backend: pulay
  Linear mixing parameter: 0.05
  Mixing with 5 old densities
  Damping of long wave oscillations: 50

Hamiltonian:
  XC and Coulomb potentials evaluated on a 50*50*50 grid
  Using the PBE Exchange-Correlation functional
  External potential:
    NoExternalPotential

XC parameters: PBE with 2 nearest neighbor stencil

Total number of cores used: 1

Number of atoms: 6
Number of atomic orbitals: 24
Number of bands in calculation: 20
Number of valence electrons: 26
Bands to converge: occupied

... initialized

Initializing position-dependent things.

Density initialized from atomic densities
Creating initial wave functions:
  20 bands from LCAO basis set

  / |      Li  |
 | O|     Li   |
 |  .--O-------.
 | /    O     /
 O----------*

Positions:
   0 Li     3.494131    3.494131    3.494131    ( 0.0000,  0.0000,  0.0000)
   1 Li     3.494131    1.164710    3.494131    ( 0.0000,  0.0000,  0.0000)
   2 O      0.000000    0.000000    0.000000    ( 0.0000,  0.0000,  0.0000)
   3 O      0.000000    2.329421    2.329421    ( 0.0000,  0.0000,  0.0000)
   4 O      2.329421    0.000000    2.329421    ( 0.0000,  0.0000,  0.0000)
   5 O      2.329421    2.329421    0.000000    ( 0.0000,  0.0000,  0.0000)

Unit cell:
           periodic     x           y           z      points  spacing
  1. axis:    yes    4.658842    0.000000    0.000000    25     0.1864
  2. axis:    yes    0.000000    4.658842    0.000000    25     0.1864
  3. axis:    yes    0.000000    0.000000    4.658842    25     0.1864

  Lengths:   4.658842   4.658842   4.658842
  Angles:   90.000000  90.000000  90.000000

Effective grid spacing dv^(1/3) = 0.1864

     iter     time        total  log10-change:  magmom
                         energy  eigst   dens
iter:   1 14:47:35   -17.272772                  +0.0000
iter:   2 14:48:06   -17.175091  -1.97  -0.98    +0.0000
iter:   3 14:48:44   -16.730849  -1.99  -1.02    +0.0000
iter:   4 14:49:22   -16.739789  -3.77  -1.59    +0.0000
iter:   5 14:49:58   -16.742010  -3.25  -1.61    +0.0000
iter:   6 14:50:36   -16.748099  -3.19  -1.74    +0.0000
iter:   7 14:51:16   -16.749534  -4.46c -2.04    +0.0000
iter:   8 14:51:54   -16.751355c -5.24c -2.07    +0.0000
iter:   9 14:52:30   -16.755743  -4.36c -2.10    +0.0000
iter:  10 14:53:08   -16.755682c -5.89c -2.64    +0.0000
iter:  11 14:53:46   -16.755175c -5.22c -2.69    -0.0000
iter:  12 14:54:25   -16.754979c -5.61c -2.76    +0.0000
iter:  13 14:55:02   -16.754985c -6.80c -3.26c   -0.0000

Converged after 13 iterations.

Dipole moment: (1.400648, 0.000000, 1.400648) |e|*Ang

Total magnetic moment: (0.000000, 0.000000, -0.000000)
Local magnetic moments:
   0 Li ( 0.000000,  0.000000, -0.000000)
   1 Li ( 0.000000,  0.000000, -0.000000)
   2 O  ( 0.000000,  0.000000, -0.000000)
   3 O  ( 0.000000,  0.000000,  0.000000)
   4 O  ( 0.000000,  0.000000, -0.000000)
   5 O  ( 0.000000,  0.000000,  0.000000)

Energy contributions relative to reference atoms: (reference = -8568.984845)

Kinetic:         +4.647591
Potential:       -6.772221
External:        +0.000000
XC:             -14.522332
Entropy (-ST):   -0.614158
Local:           +0.199056
Free energy:    -17.062064
Extrapolated:   -16.754985

Spin contamination: 0.000000 electrons
Showing only first 2 kpts
                      Up                     Down
 Kpt  Band  Eigenvalues  Occupancy  Eigenvalues  Occupancy
  0    11     -4.06444    0.95302     -4.06444    0.95302
  0    12     -3.85898    0.72218     -3.85898    0.72218
  0    13     -3.46818    0.04961     -3.46818    0.04961
  0    14     -3.45737    0.04475     -3.45737    0.04475

  1    11     -4.02659    0.93286     -4.02659    0.93286
  1    12     -3.90450    0.80384     -3.90450    0.80384
  1    13     -3.52933    0.08777     -3.52933    0.08777
  1    14     -3.46523    0.04824     -3.46523    0.04824

Fermi level: -3.76345