User:   gabrielbirnbaum@Gabriels-MacBook-Pro.local
Date:   Wed Jul 20 13:53:30 2022
Arch:   x86_64
Pid:    30164
Python: 3.9.13
gpaw:   /Users/gabrielbirnbaum/PycharmProjects/nanolithia/venv/lib/python3.9/site-packages/gpaw
_gpaw:  /Users/gabrielbirnbaum/PycharmProjects/nanolithia/venv/lib/python3.9/site-packages/
        _gpaw.cpython-39-darwin.so
ase:    /Users/gabrielbirnbaum/PycharmProjects/nanolithia/venv/lib/python3.9/site-packages/ase (version 3.22.1)
numpy:  /Users/gabrielbirnbaum/PycharmProjects/nanolithia/venv/lib/python3.9/site-packages/numpy (version 1.23.0)
scipy:  /Users/gabrielbirnbaum/PycharmProjects/nanolithia/venv/lib/python3.9/site-packages/scipy (version 1.8.1)
units:  Angstrom and eV
cores: 1
OpenMP: False
OMP_NUM_THREADS: 1

Input parameters:
  convergence: {density: 0.001,
                eigenstates: 0.0001,
                energy: 0.0002}
  kpts: {gamma: True,
         size: (8, 8, 8)}
  mode: {ecut: 500.0,
         name: pw}
  spinpol: True
  xc: PBE

System changes: positions, numbers, cell, pbc, initial_charges, initial_magmoms

Initialize ...

Li-setup:
  name: Lithium
  id: 830b4218f175192f93f959cfc0aad614
  Z: 3.0
  valence: 1
  core: 2
  charge: 0.0
  file: /Users/gabrielbirnbaum/dft_learning/DIR/gpaw-setups-0.9.20000/Li.PBE.gz
  compensation charges: gauss, rc=0.33, lmax=2
  cutoffs: 1.91(filt), 2.55(core),
  valence states:
                energy  radius
    2s(1.00)    -2.874   1.058
    2p(0.00)    -1.090   1.058
    *s          24.337   1.058

  Using partial waves for Li as LCAO basis

O-setup:
  name: Oxygen
  id: 32ecd46bf208036f09c70b0ec9a88b78
  Z: 8.0
  valence: 6
  core: 2
  charge: 0.0
  file: /Users/gabrielbirnbaum/dft_learning/DIR/gpaw-setups-0.9.20000/O.PBE.gz
  compensation charges: gauss, rc=0.21, lmax=2
  cutoffs: 1.17(filt), 0.83(core),
  valence states:
                energy  radius
    2s(2.00)   -23.961   0.688
    2p(4.00)    -9.029   0.598
    *s           3.251   0.688
    *p          18.182   0.598
    *d           0.000   0.619

  Using partial waves for O as LCAO basis

Reference energy: -9582.923946

Spin-polarized calculation.
Magnetic moment: 0.000000

Convergence criteria:
 Maximum [total energy] change in last 3 cyles: 0.0002 eV / electron
 Maximum integral of absolute [dens]ity change: 0.001 electrons / valence electron
 Maximum integral of absolute [eigenst]ate change: 0.0001 eV^2 / valence electron
 Maximum number of scf [iter]ations: 333
 (Square brackets indicate name in SCF output, whereas a 'c' in
 the SCF output indicates the quantity has converged.)

Symmetries present (total): 6

  ( 1  0  0)  ( 1  0  0)  ( 0  1  0)  ( 0  1  0)  ( 0  0 -1)  ( 0  0 -1)
  ( 0  1  0)  ( 0  0 -1)  ( 1  0  0)  ( 0  0 -1)  ( 1  0  0)  ( 0  1  0)
  ( 0  0  1)  ( 0 -1  0)  ( 0  0  1)  (-1  0  0)  ( 0 -1  0)  (-1  0  0)

512 k-points: 8 x 8 x 8 Monkhorst-Pack grid + [1/16,1/16,1/16]
65 k-points in the irreducible part of the Brillouin zone
       k-points in crystal coordinates                weights
   0:     0.00000000    0.00000000    0.00000000          1/512
   1:     0.12500000    0.00000000    0.00000000          6/512
   2:     0.12500000    0.00000000    0.12500000          6/512
   3:     0.12500000    0.12500000   -0.12500000          2/512
   4:     0.12500000    0.12500000    0.00000000          6/512
   5:     0.12500000    0.12500000    0.12500000          6/512
   6:     0.25000000   -0.12500000    0.12500000          6/512
   7:     0.25000000    0.00000000    0.00000000          6/512
   8:     0.25000000    0.00000000    0.12500000         12/512
   9:     0.25000000    0.00000000    0.25000000          6/512
          ...
  64:     0.50000000    0.50000000    0.50000000          1/512

Wave functions: Plane wave expansion
  Cutoff energy: 500.000 eV
  Number of coefficients (min, max): 2512, 2612
  Pulay-stress correction: 0.000000 eV/Ang^3 (de/decut=0.000000)
  Using Numpy's FFT
  ScaLapack parameters: grid=1x1, blocksize=None
  Wavefunction extrapolation:
    Improved wavefunction reuse through dual PAW basis

Occupation numbers: Fermi-Dirac: width=0.1000 eV

Eigensolver
   Davidson(niter=2)

Densities:
  Coarse grid: 25*25*25 grid
  Fine grid: 50*50*50 grid
  Total Charge: 0.000000

Density mixing:
  Method: difference
  Backend: pulay
  Linear mixing parameter: 0.05
  Mixing with 5 old densities
  Damping of long wave oscillations: 50

Hamiltonian:
  XC and Coulomb potentials evaluated on a 50*50*50 grid
  Using the PBE Exchange-Correlation functional
  External potential:
    NoExternalPotential

XC parameters: PBE with 2 nearest neighbor stencil

Total number of cores used: 1

Number of atoms: 11
Number of atomic orbitals: 44
Number of bands in calculation: 23
Number of valence electrons: 31
Bands to converge: occupied

... initialized

Initializing position-dependent things.

Density initialized from atomic densities
Creating initial wave functions:
  23 bands from LCAO basis set

  / | Li   Li  |
 | O|     Li   |
 |  | Li   Li  |
 |  .--O-------.
 | /Li  O Li  /
 O----------*

Positions:
   0 Li     1.164710    3.494131    3.494131    ( 0.0000,  0.0000,  0.0000)
   1 Li     1.164710    3.494131    1.164710    ( 0.0000,  0.0000,  0.0000)
   2 Li     1.164710    1.164710    1.164710    ( 0.0000,  0.0000,  0.0000)
   3 Li     3.494131    1.164710    1.164710    ( 0.0000,  0.0000,  0.0000)
   4 Li     3.494131    3.494131    1.164710    ( 0.0000,  0.0000,  0.0000)
   5 Li     3.494131    3.494131    3.494131    ( 0.0000,  0.0000,  0.0000)
   6 Li     3.494131    1.164710    3.494131    ( 0.0000,  0.0000,  0.0000)
   7 O      0.000000    0.000000    0.000000    ( 0.0000,  0.0000,  0.0000)
   8 O      0.000000    2.329421    2.329421    ( 0.0000,  0.0000,  0.0000)
   9 O      2.329421    0.000000    2.329421    ( 0.0000,  0.0000,  0.0000)
  10 O      2.329421    2.329421    0.000000    ( 0.0000,  0.0000,  0.0000)

Unit cell:
           periodic     x           y           z      points  spacing
  1. axis:    yes    4.658842    0.000000    0.000000    25     0.1864
  2. axis:    yes    0.000000    4.658842    0.000000    25     0.1864
  3. axis:    yes    0.000000    0.000000    4.658842    25     0.1864

  Lengths:   4.658842   4.658842   4.658842
  Angles:   90.000000  90.000000  90.000000

Effective grid spacing dv^(1/3) = 0.1864

     iter     time        total  log10-change:  magmom
                         energy  eigst   dens
iter:   1 13:55:50   -52.301297                  +0.0000
iter:   2 13:56:10   -51.724948  -1.70  -0.83    -0.0000
iter:   3 13:56:32   -50.259215  -1.39  -0.87    -0.0000
iter:   4 13:56:56   -50.279736  -1.24  -1.08    -0.0000
iter:   5 13:57:20   -50.122349  -1.34  -1.31    -0.0000
iter:   6 13:57:43   -50.117259  -3.50  -1.86    -0.0000
iter:   7 13:58:07   -50.121792c -2.18  -1.91    -0.0000
iter:   8 13:58:32   -50.092695  -2.41  -1.85    -0.0000
iter:   9 13:58:55   -50.089854  -4.18c -2.44    -0.0000
iter:  10 13:59:17   -50.090259c -3.78  -2.67    -0.0000
iter:  11 13:59:40   -50.089688c -4.22c -2.63    -0.0000
iter:  12 14:00:04   -50.090389c -4.28c -3.11c   -0.0000

Converged after 12 iterations.

Dipole moment: (0.608438, 0.608438, -0.608438) |e|*Ang

Total magnetic moment: (0.000000, 0.000000, -0.000000)
Local magnetic moments:
   0 Li ( 0.000000,  0.000000,  0.000000)
   1 Li ( 0.000000,  0.000000,  0.000000)
   2 Li ( 0.000000,  0.000000,  0.000000)
   3 Li ( 0.000000,  0.000000,  0.000000)
   4 Li ( 0.000000,  0.000000,  0.000000)
   5 Li ( 0.000000,  0.000000,  0.000000)
   6 Li ( 0.000000,  0.000000,  0.000000)
   7 O  ( 0.000000,  0.000000, -0.000000)
   8 O  ( 0.000000,  0.000000, -0.000000)
   9 O  ( 0.000000,  0.000000, -0.000000)
  10 O  ( 0.000000,  0.000000, -0.000000)

Energy contributions relative to reference atoms: (reference = -9582.923946)

Kinetic:        +45.464680
Potential:      -40.460794
External:        +0.000000
XC:             -55.143140
Entropy (-ST):   -0.208875
Local:           +0.153302
Free energy:    -50.194827
Extrapolated:   -50.090389

Spin contamination: 0.000000 electrons
Showing only first 2 kpts
                      Up                     Down
 Kpt  Band  Eigenvalues  Occupancy  Eigenvalues  Occupancy
  0    13      0.58022    0.26628      0.58022    0.26628
  0    14      0.58023    0.26627      0.58023    0.26627
  0    15      0.58041    0.26590      0.58041    0.26590
  0    16      5.87488    0.00000      5.87488    0.00000

  1    13      0.48273    0.49034      0.48273    0.49034
  1    14      0.54212    0.34693      0.54212    0.34693
  1    15      0.54226    0.34662      0.54226    0.34662
  1    16      6.01697    0.00000      6.01697    0.00000

Fermi level: 0.47886