User:   gabrielbirnbaum@Gabriels-MacBook-Pro.local
Date:   Mon Jul 25 07:17:58 2022
Arch:   x86_64
Pid:    69738
Python: 3.9.13
gpaw:   /Users/gabrielbirnbaum/PycharmProjects/nanolithia/venv/lib/python3.9/site-packages/gpaw
_gpaw:  /Users/gabrielbirnbaum/PycharmProjects/nanolithia/venv/lib/python3.9/site-packages/
        _gpaw.cpython-39-darwin.so
ase:    /Users/gabrielbirnbaum/PycharmProjects/nanolithia/venv/lib/python3.9/site-packages/ase (version 3.22.1)
numpy:  /Users/gabrielbirnbaum/PycharmProjects/nanolithia/venv/lib/python3.9/site-packages/numpy (version 1.23.0)
scipy:  /Users/gabrielbirnbaum/PycharmProjects/nanolithia/venv/lib/python3.9/site-packages/scipy (version 1.8.1)
units:  Angstrom and eV
cores: 1
OpenMP: False
OMP_NUM_THREADS: 1

Input parameters:
  convergence: {density: 0.001,
                eigenstates: 0.0001,
                energy: 0.0002}
  kpts: {gamma: True,
         size: (8, 8, 8)}
  mode: {ecut: 350.0,
         name: pw}
  setups: {O: :p,0.76,0}
  spinpol: False

System changes: positions, numbers, cell, pbc, initial_charges, initial_magmoms

Initialize ...

Li-setup:
  name: Lithium
  id: b73562207f97a71b6967473b66fe8b65
  Z: 3.0
  valence: 1
  core: 2
  charge: 0.0
  file: /Users/gabrielbirnbaum/dft_learning/DIR/gpaw-setups-0.9.20000/Li.LDA.gz
  compensation charges: gauss, rc=0.33, lmax=2
  cutoffs: 1.91(filt), 2.55(core),
  valence states:
                energy  radius
    2s(1.00)    -2.874   1.058
    2p(0.00)    -1.126   1.058
    *s          24.338   1.058

  Using partial waves for Li as LCAO basis

O-setup:
  name: Oxygen
  id: 9b9d51c344dea68c822856295a461509
  Z: 8.0
  valence: 6
  core: 2
  charge: 0.0
  Hubbard U: 0.760000 eV (l=1, scale=False)
  file: /Users/gabrielbirnbaum/dft_learning/DIR/gpaw-setups-0.9.20000/O.LDA.gz
  compensation charges: gauss, rc=0.21, lmax=2
  cutoffs: 1.17(filt), 0.83(core),
  valence states:
                energy  radius
    2s(2.00)   -23.752   0.688
    2p(4.00)    -9.195   0.598
    *s           3.459   0.688
    *p          18.016   0.598
    *d           0.000   0.619

  Using partial waves for O as LCAO basis

Reference energy: -8910.067456

Spin-paired calculation

Convergence criteria:
 Maximum [total energy] change in last 3 cyles: 0.0002 eV / electron
 Maximum integral of absolute [dens]ity change: 0.001 electrons / valence electron
 Maximum integral of absolute [eigenst]ate change: 0.0001 eV^2 / valence electron
 Maximum number of scf [iter]ations: 333
 (Square brackets indicate name in SCF output, whereas a 'c' in
 the SCF output indicates the quantity has converged.)

Symmetries present (total): 4

  ( 1  0  0)  ( 0  1  0)  ( 0 -1  0)  (-1  0  0)
  ( 0  1  0)  ( 1  0  0)  (-1  0  0)  ( 0 -1  0)
  ( 0  0  1)  ( 0  0 -1)  ( 0  0  1)  ( 0  0 -1)

512 k-points: 8 x 8 x 8 Monkhorst-Pack grid + [1/16,1/16,1/16]
150 k-points in the irreducible part of the Brillouin zone
       k-points in crystal coordinates                weights
   0:     0.00000000    0.00000000    0.00000000          1/512
   1:     0.00000000    0.00000000    0.12500000          2/512
   2:     0.00000000    0.00000000    0.25000000          2/512
   3:     0.00000000    0.00000000    0.37500000          2/512
   4:     0.00000000    0.00000000    0.50000000          1/512
   5:     0.12500000   -0.12500000   -0.37500000          2/512
   6:     0.12500000   -0.12500000   -0.25000000          2/512
   7:     0.12500000   -0.12500000   -0.12500000          2/512
   8:     0.12500000   -0.12500000    0.00000000          2/512
   9:     0.12500000   -0.12500000    0.12500000          2/512
          ...
 149:     0.50000000    0.50000000    0.50000000          1/512

Wave functions: Plane wave expansion
  Cutoff energy: 350.000 eV
  Number of coefficients (min, max): 989, 1019
  Pulay-stress correction: 0.000000 eV/Ang^3 (de/decut=0.000000)
  Using Numpy's FFT
  ScaLapack parameters: grid=1x1, blocksize=None
  Wavefunction extrapolation:
    Improved wavefunction reuse through dual PAW basis

Occupation numbers: Fermi-Dirac: width=0.1000 eV

Eigensolver
   Davidson(niter=2)

Densities:
  Coarse grid: 14*14*35 grid
  Fine grid: 28*28*70 grid
  Total Charge: 0.000000

Density mixing:
  Method: separate
  Backend: pulay
  Linear mixing parameter: 0.05
  Mixing with 5 old densities
  Damping of long wave oscillations: 50

Hamiltonian:
  XC and Coulomb potentials evaluated on a 28*28*70 grid
  Using the LDA Exchange-Correlation functional
  External potential:
    NoExternalPotential

Total number of cores used: 1

Number of atoms: 8
Number of atomic orbitals: 32
Number of bands in calculation: 21
Number of valence electrons: 28
Bands to converge: occupied

... initialized

Initializing position-dependent things.

Density initialized from atomic densities
Creating initial wave functions:
  21 bands from LCAO basis set

             O

           LiO

[...]

           O Li

           O
        Li

Positions:
   0 Li     0.000000    0.000000    3.851761    ( 0.0000,  0.0000,  0.0000)
   1 Li     0.000000    0.000000    0.000000    ( 0.0000,  0.0000,  0.0000)
   2 Li     1.590181   -0.918093    5.777642    ( 0.0000,  0.0000,  0.0000)
   3 Li     1.590181    0.918093    1.925881    ( 0.0000,  0.0000,  0.0000)
   4 O      1.590181   -0.918093    1.150213    ( 0.0000,  0.0000,  0.0000)
   5 O      1.590181    0.918093    5.001974    ( 0.0000,  0.0000,  0.0000)
   6 O      1.590181    0.918093    6.553309    ( 0.0000,  0.0000,  0.0000)
   7 O      1.590181   -0.918093    2.701548    ( 0.0000,  0.0000,  0.0000)

Unit cell:
           periodic     x           y           z      points  spacing
  1. axis:    yes    1.590181   -2.754274    0.000000    14     0.1967
  2. axis:    yes    1.590181    2.754274    0.000000    14     0.1967
  3. axis:    yes    0.000000    0.000000    7.703522    35     0.2201

  Lengths:   3.180362   3.180362   7.703522
  Angles:   90.000000  90.000000 119.999995

Effective grid spacing dv^(1/3) = 0.2143

     iter     time        total  log10-change:
                         energy  eigst   dens
iter:   1 07:18:16   -27.578033
iter:   2 07:18:24   -27.477344  -1.68  -0.91
iter:   3 07:18:35   -26.492680  -1.81  -0.94
iter:   4 07:18:43   -26.403030  -2.41  -1.38
iter:   5 07:18:52   -26.392701  -2.49  -1.86
iter:   6 07:19:01   -26.382501  -3.57  -2.14
iter:   7 07:19:09   -26.381266  -4.11c -2.41
iter:   8 07:19:18   -26.381455c -4.91c -2.65
iter:   9 07:19:27   -26.381278c -5.32c -2.75
iter:  10 07:19:36   -26.381247c -5.51c -2.96
iter:  11 07:19:45   -26.381249c -5.96c -3.11c

Converged after 11 iterations.

Dipole moment: (0.000000, -0.000000, -0.000000) |e|*Ang

Energy contributions relative to reference atoms: (reference = -8910.067456)

Kinetic:        -27.490293
Potential:      +38.622522
External:        +0.000000
XC:             -37.119468
Entropy (-ST):   -0.000035
Local:           -0.393992
Free energy:    -26.381266
Extrapolated:   -26.381249

Showing only first 2 kpts
 Kpt  Band  Eigenvalues  Occupancy
  0    12      2.50681    1.99995
  0    13      2.50719    1.99995
  0    14      4.23006    0.00260
  0    15      6.37713    0.00000

  1    12      2.54951    1.99992
  1    13      2.54987    1.99992
  1    14      4.36140    0.00070
  1    15      6.29998    0.00000

Fermi level: 3.56567

Gap: 1.638 eV
Transition (v -> c):
  (s=0, k=8, n=13, [0.12, -0.12, 0.00]) -> (s=0, k=0, n=14, [0.00, 0.00, 0.00])
Timing:                              incl.     excl.
Hamiltonian:                         0.051     0.000   0.0% |
 Atomic:                             0.041     0.002   0.0% |
  XC Correction:                     0.039     0.039   0.0% |
 Calculate atomic Hamiltonians:      0.004     0.004   0.0% |
 Communicate:                        0.000     0.000   0.0% |
 Initialize Hamiltonian:             0.000     0.000   0.0% |
 Poisson:                            0.000     0.000   0.0% |
 XC 3D grid:                         0.005     0.005   0.0% |
LCAO initialization:                10.526     0.030   0.0% |
 LCAO eigensolver:                   0.627     0.005   0.0% |
  Calculate projections:             0.011     0.011   0.0% |
  DenseAtomicCorrection:             0.032     0.032   0.0% |
  Distribute overlap matrix:         0.003     0.003   0.0% |
  Orbital Layouts:                   0.072     0.072   0.1% |
  Potential matrix:                  0.362     0.362   0.3% |
  Sum over cells:                    0.143     0.143   0.1% |
 LCAO to grid:                       6.860     6.860   6.4% |--|
 Set positions (LCAO WFS):           3.010     0.414   0.4% |
  Basic WFS set positions:           0.001     0.001   0.0% |
  Basis functions set positions:     0.000     0.000   0.0% |
  P tci:                             1.188     1.188   1.1% |
  ST tci:                            1.353     1.353   1.3% ||
  mktci:                             0.054     0.054   0.1% |
PWDescriptor:                        0.029     0.029   0.0% |
SCF-cycle:                          95.698     0.208   0.2% |
 Davidson:                          86.682     7.556   7.1% |--|
  Apply H:                          17.654    17.346  16.2% |-----|
   HMM T:                            0.307     0.307   0.3% |
  Subspace diag:                    19.984     0.088   0.1% |
   calc_h_matrix:                   19.100     0.553   0.5% |
    Apply H:                        18.547    18.230  17.1% |------|
     HMM T:                          0.317     0.317   0.3% |
   diagonalize:                      0.343     0.343   0.3% |
   rotate_psi:                       0.454     0.454   0.4% |
  calc. matrices:                   38.934     3.462   3.2% ||
   Apply H:                         35.473    34.878  32.6% |------------|
    HMM T:                           0.595     0.595   0.6% |
  diagonalize:                       1.709     1.709   1.6% ||
  rotate_psi:                        0.845     0.845   0.8% |
 Density:                            8.097     0.000   0.0% |
  Atomic density matrices:           0.158     0.158   0.1% |
  Mix:                               0.095     0.095   0.1% |
  Multipole moments:                 0.001     0.001   0.0% |
  Pseudo density:                    7.842     7.836   7.3% |--|
   Symmetrize density:               0.006     0.006   0.0% |
 Hamiltonian:                        0.532     0.004   0.0% |
  Atomic:                            0.426     0.019   0.0% |
   XC Correction:                    0.407     0.407   0.4% |
  Calculate atomic Hamiltonians:     0.047     0.047   0.0% |
  Communicate:                       0.000     0.000   0.0% |
  Poisson:                           0.004     0.004   0.0% |
  XC 3D grid:                        0.052     0.052   0.0% |
 Orthonormalize:                     0.179     0.007   0.0% |
  calc_s_matrix:                     0.037     0.037   0.0% |
  inverse-cholesky:                  0.009     0.009   0.0% |
  projections:                       0.107     0.107   0.1% |
  rotate_psi_s:                      0.019     0.019   0.0% |
Set symmetry:                        0.008     0.008   0.0% |
Other:                               0.544     0.544   0.5% |
Total:                                       106.856 100.0%