User:   gabrielbirnbaum@Gabriels-MacBook-Pro.local
Date:   Mon Jul 25 10:47:26 2022
Arch:   x86_64
Pid:    69738
Python: 3.9.13
gpaw:   /Users/gabrielbirnbaum/PycharmProjects/nanolithia/venv/lib/python3.9/site-packages/gpaw
_gpaw:  /Users/gabrielbirnbaum/PycharmProjects/nanolithia/venv/lib/python3.9/site-packages/
        _gpaw.cpython-39-darwin.so
ase:    /Users/gabrielbirnbaum/PycharmProjects/nanolithia/venv/lib/python3.9/site-packages/ase (version 3.22.1)
numpy:  /Users/gabrielbirnbaum/PycharmProjects/nanolithia/venv/lib/python3.9/site-packages/numpy (version 1.23.0)
scipy:  /Users/gabrielbirnbaum/PycharmProjects/nanolithia/venv/lib/python3.9/site-packages/scipy (version 1.8.1)
units:  Angstrom and eV
cores: 1
OpenMP: False
OMP_NUM_THREADS: 1

Input parameters:
  convergence: {density: 0.001,
                eigenstates: 0.0001,
                energy: 0.0002}
  kpts: {gamma: True,
         size: (4, 4, 4)}
  mode: {ecut: 575.0,
         name: pw}
  setups: {O: :p,0.76,0}
  spinpol: False

System changes: positions, numbers, cell, pbc, initial_charges, initial_magmoms

Initialize ...

Li-setup:
  name: Lithium
  id: b73562207f97a71b6967473b66fe8b65
  Z: 3.0
  valence: 1
  core: 2
  charge: 0.0
  file: /Users/gabrielbirnbaum/dft_learning/DIR/gpaw-setups-0.9.20000/Li.LDA.gz
  compensation charges: gauss, rc=0.33, lmax=2
  cutoffs: 1.91(filt), 2.55(core),
  valence states:
                energy  radius
    2s(1.00)    -2.874   1.058
    2p(0.00)    -1.126   1.058
    *s          24.338   1.058

  Using partial waves for Li as LCAO basis

O-setup:
  name: Oxygen
  id: 9b9d51c344dea68c822856295a461509
  Z: 8.0
  valence: 6
  core: 2
  charge: 0.0
  Hubbard U: 0.760000 eV (l=1, scale=False)
  file: /Users/gabrielbirnbaum/dft_learning/DIR/gpaw-setups-0.9.20000/O.LDA.gz
  compensation charges: gauss, rc=0.21, lmax=2
  cutoffs: 1.17(filt), 0.83(core),
  valence states:
                energy  radius
    2s(2.00)   -23.752   0.688
    2p(4.00)    -9.195   0.598
    *s           3.459   0.688
    *p          18.016   0.598
    *d           0.000   0.619

  Using partial waves for O as LCAO basis

Reference energy: -8910.067456

Spin-paired calculation

Convergence criteria:
 Maximum [total energy] change in last 3 cyles: 0.0002 eV / electron
 Maximum integral of absolute [dens]ity change: 0.001 electrons / valence electron
 Maximum integral of absolute [eigenst]ate change: 0.0001 eV^2 / valence electron
 Maximum number of scf [iter]ations: 333
 (Square brackets indicate name in SCF output, whereas a 'c' in
 the SCF output indicates the quantity has converged.)

Symmetries present (total): 4

  ( 1  0  0)  ( 0  1  0)  ( 0 -1  0)  (-1  0  0)
  ( 0  1  0)  ( 1  0  0)  (-1  0  0)  ( 0 -1  0)
  ( 0  0  1)  ( 0  0 -1)  ( 0  0  1)  ( 0  0 -1)

64 k-points: 4 x 4 x 4 Monkhorst-Pack grid + [1/8,1/8,1/8]
24 k-points in the irreducible part of the Brillouin zone
       k-points in crystal coordinates                weights
   0:     0.00000000    0.00000000    0.00000000          1/64
   1:     0.00000000    0.00000000    0.25000000          2/64
   2:     0.00000000    0.00000000    0.50000000          1/64
   3:     0.25000000   -0.25000000   -0.25000000          2/64
   4:     0.25000000   -0.25000000    0.00000000          2/64
   5:     0.25000000   -0.25000000    0.25000000          2/64
   6:     0.25000000   -0.25000000    0.50000000          2/64
   7:     0.25000000    0.00000000   -0.25000000          4/64
   8:     0.25000000    0.00000000    0.00000000          4/64
   9:     0.25000000    0.00000000    0.25000000          4/64
          ...
  23:     0.50000000    0.50000000    0.50000000          1/64

Wave functions: Plane wave expansion
  Cutoff energy: 575.000 eV
  Number of coefficients (min, max): 2103, 2142
  Pulay-stress correction: 0.000000 eV/Ang^3 (de/decut=0.000000)
  Using Numpy's FFT
  ScaLapack parameters: grid=1x1, blocksize=None
  Wavefunction extrapolation:
    Improved wavefunction reuse through dual PAW basis

Occupation numbers: Fermi-Dirac: width=0.1000 eV

Eigensolver
   Davidson(niter=2)

Densities:
  Coarse grid: 18*18*45 grid
  Fine grid: 36*36*90 grid
  Total Charge: 0.000000

Density mixing:
  Method: separate
  Backend: pulay
  Linear mixing parameter: 0.05
  Mixing with 5 old densities
  Damping of long wave oscillations: 50

Hamiltonian:
  XC and Coulomb potentials evaluated on a 36*36*90 grid
  Using the LDA Exchange-Correlation functional
  External potential:
    NoExternalPotential

Total number of cores used: 1

Number of atoms: 8
Number of atomic orbitals: 32
Number of bands in calculation: 21
Number of valence electrons: 28
Bands to converge: occupied

... initialized

Initializing position-dependent things.

Density initialized from atomic densities
Creating initial wave functions:
  21 bands from LCAO basis set

             O

           LiO

[...]

           O Li

           O
        Li

Positions:
   0 Li     0.000000    0.000000    3.851761    ( 0.0000,  0.0000,  0.0000)
   1 Li     0.000000    0.000000    0.000000    ( 0.0000,  0.0000,  0.0000)
   2 Li     1.590181   -0.918093    5.777642    ( 0.0000,  0.0000,  0.0000)
   3 Li     1.590181    0.918093    1.925881    ( 0.0000,  0.0000,  0.0000)
   4 O      1.590181   -0.918093    1.150213    ( 0.0000,  0.0000,  0.0000)
   5 O      1.590181    0.918093    5.001974    ( 0.0000,  0.0000,  0.0000)
   6 O      1.590181    0.918093    6.553309    ( 0.0000,  0.0000,  0.0000)
   7 O      1.590181   -0.918093    2.701548    ( 0.0000,  0.0000,  0.0000)

Unit cell:
           periodic     x           y           z      points  spacing
  1. axis:    yes    1.590181   -2.754274    0.000000    18     0.1530
  2. axis:    yes    1.590181    2.754274    0.000000    18     0.1530
  3. axis:    yes    0.000000    0.000000    7.703522    45     0.1712

  Lengths:   3.180362   3.180362   7.703522
  Angles:   90.000000  90.000000 119.999995

Effective grid spacing dv^(1/3) = 0.1666

     iter     time        total  log10-change:
                         energy  eigst   dens
iter:   1 10:47:35   -42.121575
iter:   2 10:47:40   -41.938577  -1.65  -0.90
iter:   3 10:47:45   -41.040110  -1.39  -0.94
iter:   4 10:47:49   -41.295443  -1.37  -1.28
iter:   5 10:47:54   -40.878749  -1.53  -1.35
iter:   6 10:47:59   -40.879516  -3.32  -2.14
iter:   7 10:48:04   -40.936228  -2.17  -2.15
iter:   8 10:48:08   -40.873874  -2.49  -1.76
iter:   9 10:48:13   -40.873549  -3.96  -2.52
iter:  10 10:48:18   -40.873672c -3.73  -2.64
iter:  11 10:48:23   -40.873217c -4.74c -2.86
iter:  12 10:48:27   -40.873210c -5.73c -3.61c

Converged after 12 iterations.

Dipole moment: (0.000000, -0.000000, -0.000000) |e|*Ang

Energy contributions relative to reference atoms: (reference = -8910.067456)

Kinetic:        +36.234402
Potential:      -34.937735
External:        +0.000000
XC:             -42.697144
Entropy (-ST):   -0.000019
Local:           +0.527277
Free energy:    -40.873219
Extrapolated:   -40.873210

Showing only first 2 kpts
 Kpt  Band  Eigenvalues  Occupancy
  0    12      2.29880    1.99997
  0    13      2.29884    1.99997
  0    14      4.25534    0.00045
  0    15      6.49446    0.00000

  1    12      2.26372    1.99998
  1    13      2.26376    1.99998
  1    14      4.60698    0.00001
  1    15      6.14954    0.00000

Fermi level: 3.41643

Gap: 1.957 eV
Transition (v -> c):
  (s=0, k=0, n=13, [0.00, 0.00, 0.00]) -> (s=0, k=0, n=14, [0.00, 0.00, 0.00])
Timing:                              incl.     excl.
Hamiltonian:                         0.088     0.001   0.0% |
 Atomic:                             0.055     0.002   0.0% |
  XC Correction:                     0.053     0.053   0.1% |
 Calculate atomic Hamiltonians:      0.015     0.015   0.0% |
 Communicate:                        0.000     0.000   0.0% |
 Initialize Hamiltonian:             0.000     0.000   0.0% |
 Poisson:                            0.001     0.001   0.0% |
 XC 3D grid:                         0.016     0.016   0.0% |
LCAO initialization:                 4.810     0.046   0.1% |
 LCAO eigensolver:                   0.905     0.001   0.0% |
  Calculate projections:             0.002     0.002   0.0% |
  DenseAtomicCorrection:             0.005     0.005   0.0% |
  Distribute overlap matrix:         0.001     0.001   0.0% |
  Orbital Layouts:                   0.014     0.014   0.0% |
  Potential matrix:                  0.857     0.857   1.4% ||
  Sum over cells:                    0.025     0.025   0.0% |
 LCAO to grid:                       3.027     3.027   4.9% |-|
 Set positions (LCAO WFS):           0.832     0.124   0.2% |
  Basic WFS set positions:           0.001     0.001   0.0% |
  Basis functions set positions:     0.000     0.000   0.0% |
  P tci:                             0.281     0.281   0.5% |
  ST tci:                            0.380     0.380   0.6% |
  mktci:                             0.047     0.047   0.1% |
PWDescriptor:                        0.019     0.019   0.0% |
SCF-cycle:                          56.006     0.087   0.1% |
 Davidson:                          49.623     4.152   6.8% |--|
  Apply H:                          10.456    10.335  16.8% |------|
   HMM T:                            0.121     0.121   0.2% |
  Subspace diag:                    12.952     0.022   0.0% |
   calc_h_matrix:                   12.635     0.224   0.4% |
    Apply H:                        12.411    12.305  20.0% |-------|
     HMM T:                          0.106     0.106   0.2% |
   diagonalize:                      0.087     0.087   0.1% |
   rotate_psi:                       0.208     0.208   0.3% |
  calc. matrices:                   21.219     1.789   2.9% ||
   Apply H:                         19.430    18.961  30.9% |-----------|
    HMM T:                           0.469     0.469   0.8% |
  diagonalize:                       0.448     0.448   0.7% |
  rotate_psi:                        0.396     0.396   0.6% |
 Density:                            4.999     0.000   0.0% |
  Atomic density matrices:           0.044     0.044   0.1% |
  Mix:                               0.333     0.333   0.5% |
  Multipole moments:                 0.002     0.002   0.0% |
  Pseudo density:                    4.620     4.601   7.5% |--|
   Symmetrize density:               0.019     0.019   0.0% |
 Hamiltonian:                        1.201     0.019   0.0% |
  Atomic:                            0.771     0.041   0.1% |
   XC Correction:                    0.731     0.731   1.2% |
  Calculate atomic Hamiltonians:     0.202     0.202   0.3% |
  Communicate:                       0.000     0.000   0.0% |
  Poisson:                           0.005     0.005   0.0% |
  XC 3D grid:                        0.203     0.203   0.3% |
 Orthonormalize:                     0.096     0.002   0.0% |
  calc_s_matrix:                     0.040     0.040   0.1% |
  inverse-cholesky:                  0.002     0.002   0.0% |
  projections:                       0.044     0.044   0.1% |
  rotate_psi_s:                      0.008     0.008   0.0% |
Set symmetry:                        0.002     0.002   0.0% |
Other:                               0.476     0.476   0.8% |
Total:                                        61.402 100.0%