User:   gabrielbirnbaum@Gabriels-MacBook-Pro.local
Date:   Mon Jul 25 08:24:36 2022
Arch:   x86_64
Pid:    69738
Python: 3.9.13
gpaw:   /Users/gabrielbirnbaum/PycharmProjects/nanolithia/venv/lib/python3.9/site-packages/gpaw
_gpaw:  /Users/gabrielbirnbaum/PycharmProjects/nanolithia/venv/lib/python3.9/site-packages/
        _gpaw.cpython-39-darwin.so
ase:    /Users/gabrielbirnbaum/PycharmProjects/nanolithia/venv/lib/python3.9/site-packages/ase (version 3.22.1)
numpy:  /Users/gabrielbirnbaum/PycharmProjects/nanolithia/venv/lib/python3.9/site-packages/numpy (version 1.23.0)
scipy:  /Users/gabrielbirnbaum/PycharmProjects/nanolithia/venv/lib/python3.9/site-packages/scipy (version 1.8.1)
units:  Angstrom and eV
cores: 1
OpenMP: False
OMP_NUM_THREADS: 1

Input parameters:
  convergence: {density: 0.001,
                eigenstates: 0.0001,
                energy: 0.0002}
  kpts: {gamma: True,
         size: (8, 8, 8)}
  mode: {ecut: 800.0,
         name: pw}
  setups: {O: :p,0.76,0}
  spinpol: False

System changes: positions, numbers, cell, pbc, initial_charges, initial_magmoms

Initialize ...

Li-setup:
  name: Lithium
  id: b73562207f97a71b6967473b66fe8b65
  Z: 3.0
  valence: 1
  core: 2
  charge: 0.0
  file: /Users/gabrielbirnbaum/dft_learning/DIR/gpaw-setups-0.9.20000/Li.LDA.gz
  compensation charges: gauss, rc=0.33, lmax=2
  cutoffs: 1.91(filt), 2.55(core),
  valence states:
                energy  radius
    2s(1.00)    -2.874   1.058
    2p(0.00)    -1.126   1.058
    *s          24.338   1.058

  Using partial waves for Li as LCAO basis

O-setup:
  name: Oxygen
  id: 9b9d51c344dea68c822856295a461509
  Z: 8.0
  valence: 6
  core: 2
  charge: 0.0
  Hubbard U: 0.760000 eV (l=1, scale=False)
  file: /Users/gabrielbirnbaum/dft_learning/DIR/gpaw-setups-0.9.20000/O.LDA.gz
  compensation charges: gauss, rc=0.21, lmax=2
  cutoffs: 1.17(filt), 0.83(core),
  valence states:
                energy  radius
    2s(2.00)   -23.752   0.688
    2p(4.00)    -9.195   0.598
    *s           3.459   0.688
    *p          18.016   0.598
    *d           0.000   0.619

  Using partial waves for O as LCAO basis

Reference energy: -8910.067456

Spin-paired calculation

Convergence criteria:
 Maximum [total energy] change in last 3 cyles: 0.0002 eV / electron
 Maximum integral of absolute [dens]ity change: 0.001 electrons / valence electron
 Maximum integral of absolute [eigenst]ate change: 0.0001 eV^2 / valence electron
 Maximum number of scf [iter]ations: 333
 (Square brackets indicate name in SCF output, whereas a 'c' in
 the SCF output indicates the quantity has converged.)

Symmetries present (total): 4

  ( 1  0  0)  ( 0  1  0)  ( 0 -1  0)  (-1  0  0)
  ( 0  1  0)  ( 1  0  0)  (-1  0  0)  ( 0 -1  0)
  ( 0  0  1)  ( 0  0 -1)  ( 0  0  1)  ( 0  0 -1)

512 k-points: 8 x 8 x 8 Monkhorst-Pack grid + [1/16,1/16,1/16]
150 k-points in the irreducible part of the Brillouin zone
       k-points in crystal coordinates                weights
   0:     0.00000000    0.00000000    0.00000000          1/512
   1:     0.00000000    0.00000000    0.12500000          2/512
   2:     0.00000000    0.00000000    0.25000000          2/512
   3:     0.00000000    0.00000000    0.37500000          2/512
   4:     0.00000000    0.00000000    0.50000000          1/512
   5:     0.12500000   -0.12500000   -0.37500000          2/512
   6:     0.12500000   -0.12500000   -0.25000000          2/512
   7:     0.12500000   -0.12500000   -0.12500000          2/512
   8:     0.12500000   -0.12500000    0.00000000          2/512
   9:     0.12500000   -0.12500000    0.12500000          2/512
          ...
 149:     0.50000000    0.50000000    0.50000000          1/512

Wave functions: Plane wave expansion
  Cutoff energy: 800.000 eV
  Number of coefficients (min, max): 3452, 3516
  Pulay-stress correction: 0.000000 eV/Ang^3 (de/decut=0.000000)
  Using Numpy's FFT
  ScaLapack parameters: grid=1x1, blocksize=None
  Wavefunction extrapolation:
    Improved wavefunction reuse through dual PAW basis

Occupation numbers: Fermi-Dirac: width=0.1000 eV

Eigensolver
   Davidson(niter=2)

Densities:
  Coarse grid: 21*21*54 grid
  Fine grid: 42*42*108 grid
  Total Charge: 0.000000

Density mixing:
  Method: separate
  Backend: pulay
  Linear mixing parameter: 0.05
  Mixing with 5 old densities
  Damping of long wave oscillations: 50

Hamiltonian:
  XC and Coulomb potentials evaluated on a 42*42*108 grid
  Using the LDA Exchange-Correlation functional
  External potential:
    NoExternalPotential

Total number of cores used: 1

Number of atoms: 8
Number of atomic orbitals: 32
Number of bands in calculation: 21
Number of valence electrons: 28
Bands to converge: occupied

... initialized

Initializing position-dependent things.

Density initialized from atomic densities
Creating initial wave functions:
  21 bands from LCAO basis set

             O

           LiO

[...]

           O Li

           O
        Li

Positions:
   0 Li     0.000000    0.000000    3.851761    ( 0.0000,  0.0000,  0.0000)
   1 Li     0.000000    0.000000    0.000000    ( 0.0000,  0.0000,  0.0000)
   2 Li     1.590181   -0.918093    5.777642    ( 0.0000,  0.0000,  0.0000)
   3 Li     1.590181    0.918093    1.925881    ( 0.0000,  0.0000,  0.0000)
   4 O      1.590181   -0.918093    1.150213    ( 0.0000,  0.0000,  0.0000)
   5 O      1.590181    0.918093    5.001974    ( 0.0000,  0.0000,  0.0000)
   6 O      1.590181    0.918093    6.553309    ( 0.0000,  0.0000,  0.0000)
   7 O      1.590181   -0.918093    2.701548    ( 0.0000,  0.0000,  0.0000)

Unit cell:
           periodic     x           y           z      points  spacing
  1. axis:    yes    1.590181   -2.754274    0.000000    21     0.1312
  2. axis:    yes    1.590181    2.754274    0.000000    21     0.1312
  3. axis:    yes    0.000000    0.000000    7.703522    54     0.1427

  Lengths:   3.180362   3.180362   7.703522
  Angles:   90.000000  90.000000 119.999995

Effective grid spacing dv^(1/3) = 0.1415

     iter     time        total  log10-change:
                         energy  eigst   dens
iter:   1 08:25:34   -42.668679
iter:   2 08:26:04   -42.480428  -1.55  -0.90
iter:   3 08:26:35   -41.573203  -1.32  -0.94
iter:   4 08:27:06   -41.872676  -1.29  -1.27
iter:   5 08:27:37   -41.410105  -1.29  -1.33
iter:   6 08:28:08   -41.411689  -3.14  -2.13
iter:   7 08:28:40   -41.446519  -2.10  -2.13
iter:   8 08:29:11   -41.404690  -2.51  -1.84
iter:   9 08:29:42   -41.404305  -3.97  -2.52
iter:  10 08:30:14   -41.404926c -3.43  -2.64
iter:  11 08:30:48   -41.404221c -4.87c -2.71
iter:  12 08:31:19   -41.403964c -4.40c -2.96
iter:  13 08:42:00   -41.403964c -6.50c -3.85c

Converged after 13 iterations.

Dipole moment: (0.000000, -0.000000, -0.000000) |e|*Ang

Energy contributions relative to reference atoms: (reference = -8910.067456)

Kinetic:        +40.540646
Potential:      -39.891016
External:        +0.000000
XC:             -42.945272
Entropy (-ST):   -0.000013
Local:           +0.891684
Free energy:    -41.403970
Extrapolated:   -41.403964

Showing only first 2 kpts
 Kpt  Band  Eigenvalues  Occupancy
  0    12      2.29761    1.99997
  0    13      2.29761    1.99997
  0    14      4.25509    0.00047
  0    15      6.48894    0.00000

  1    12      2.28881    1.99998
  1    13      2.28881    1.99998
  1    14      4.34839    0.00019
  1    15      6.39662    0.00000

Fermi level: 3.42013

Gap: 1.943 eV
Transition (v -> c):
  (s=0, k=16, n=13, [0.12, 0.00, 0.00]) -> (s=0, k=0, n=14, [0.00, 0.00, 0.00])
Timing:                              incl.     excl.
Hamiltonian:                         0.095     0.003   0.0% |
 Atomic:                             0.048     0.002   0.0% |
  XC Correction:                     0.046     0.046   0.0% |
 Calculate atomic Hamiltonians:      0.022     0.022   0.0% |
 Communicate:                        0.000     0.000   0.0% |
 Initialize Hamiltonian:             0.000     0.000   0.0% |
 Poisson:                            0.001     0.001   0.0% |
 XC 3D grid:                         0.022     0.022   0.0% |
LCAO initialization:                29.316     0.038   0.0% |
 LCAO eigensolver:                   1.462     0.005   0.0% |
  Calculate projections:             0.009     0.009   0.0% |
  DenseAtomicCorrection:             0.031     0.031   0.0% |
  Distribute overlap matrix:         0.003     0.003   0.0% |
  Orbital Layouts:                   0.067     0.067   0.0% |
  Potential matrix:                  1.209     1.209   0.1% |
  Sum over cells:                    0.138     0.138   0.0% |
 LCAO to grid:                      24.679    24.679   2.4% ||
 Set positions (LCAO WFS):           3.137     0.425   0.0% |
  Basic WFS set positions:           0.001     0.001   0.0% |
  Basis functions set positions:     0.000     0.000   0.0% |
  P tci:                             1.161     1.161   0.1% |
  ST tci:                            1.512     1.512   0.1% |
  mktci:                             0.039     0.039   0.0% |
PWDescriptor:                        0.143     0.143   0.0% |
SCF-cycle:                        1012.251     0.479   0.0% |
 Davidson:                         974.357    29.300   2.8% ||
  Apply H:                         674.596   672.847  64.5% |-------------------------|
   HMM T:                            1.748     1.748   0.2% |
  Subspace diag:                    89.534     0.134   0.0% |
   calc_h_matrix:                   87.043     1.844   0.2% |
    Apply H:                        85.199    84.406   8.1% |--|
     HMM T:                          0.794     0.794   0.1% |
   diagonalize:                      0.451     0.451   0.0% |
   rotate_psi:                       1.905     1.905   0.2% |
  calc. matrices:                  175.326    11.657   1.1% |
   Apply H:                        163.669   161.913  15.5% |-----|
    HMM T:                           1.755     1.755   0.2% |
  diagonalize:                       2.118     2.118   0.2% |
  rotate_psi:                        3.483     3.483   0.3% |
 Density:                           35.593     0.000   0.0% |
  Atomic density matrices:           0.203     0.203   0.0% |
  Mix:                               0.447     0.447   0.0% |
  Multipole moments:                 0.002     0.002   0.0% |
  Pseudo density:                   34.941    34.915   3.3% ||
   Symmetrize density:               0.026     0.026   0.0% |
 Hamiltonian:                        1.204     0.029   0.0% |
  Atomic:                            0.621     0.032   0.0% |
   XC Correction:                    0.590     0.590   0.1% |
  Calculate atomic Hamiltonians:     0.264     0.264   0.0% |
  Communicate:                       0.000     0.000   0.0% |
  Poisson:                           0.007     0.007   0.0% |
  XC 3D grid:                        0.282     0.282   0.0% |
 Orthonormalize:                     0.618     0.011   0.0% |
  calc_s_matrix:                     0.154     0.154   0.0% |
  inverse-cholesky:                  0.012     0.012   0.0% |
  projections:                       0.374     0.374   0.0% |
  rotate_psi_s:                      0.067     0.067   0.0% |
Set symmetry:                        0.010     0.010   0.0% |
Other:                               1.631     1.631   0.2% |
Total:                                      1043.446 100.0%