User:   gabrielbirnbaum@Gabriels-MacBook-Pro.local
Date:   Thu Jul 21 09:43:28 2022
Arch:   x86_64
Pid:    38954
Python: 3.9.13
gpaw:   /Users/gabrielbirnbaum/PycharmProjects/nanolithia/venv/lib/python3.9/site-packages/gpaw
_gpaw:  /Users/gabrielbirnbaum/PycharmProjects/nanolithia/venv/lib/python3.9/site-packages/
        _gpaw.cpython-39-darwin.so
ase:    /Users/gabrielbirnbaum/PycharmProjects/nanolithia/venv/lib/python3.9/site-packages/ase (version 3.22.1)
numpy:  /Users/gabrielbirnbaum/PycharmProjects/nanolithia/venv/lib/python3.9/site-packages/numpy (version 1.23.0)
scipy:  /Users/gabrielbirnbaum/PycharmProjects/nanolithia/venv/lib/python3.9/site-packages/scipy (version 1.8.1)
units:  Angstrom and eV
cores: 1
OpenMP: False
OMP_NUM_THREADS: 1

Input parameters:
  convergence: {density: 0.001,
                eigenstates: 0.0001,
                energy: 0.0002}
  kpts: {gamma: True,
         size: (8, 8, 8)}
  mode: {ecut: 500.0,
         name: pw}
  setups: {O: :p,0.33,0}
  spinpol: True
  xc: PBE

System changes: positions, numbers, cell, pbc, initial_charges, initial_magmoms

Initialize ...

Li-setup:
  name: Lithium
  id: 830b4218f175192f93f959cfc0aad614
  Z: 3.0
  valence: 1
  core: 2
  charge: 0.0
  file: /Users/gabrielbirnbaum/dft_learning/DIR/gpaw-setups-0.9.20000/Li.PBE.gz
  compensation charges: gauss, rc=0.33, lmax=2
  cutoffs: 1.91(filt), 2.55(core),
  valence states:
                energy  radius
    2s(1.00)    -2.874   1.058
    2p(0.00)    -1.090   1.058
    *s          24.337   1.058

  Using partial waves for Li as LCAO basis

O-setup:
  name: Oxygen
  id: 32ecd46bf208036f09c70b0ec9a88b78
  Z: 8.0
  valence: 6
  core: 2
  charge: 0.0
  Hubbard U: 0.330000 eV (l=1, scale=False)
  file: /Users/gabrielbirnbaum/dft_learning/DIR/gpaw-setups-0.9.20000/O.PBE.gz
  compensation charges: gauss, rc=0.21, lmax=2
  cutoffs: 1.17(filt), 0.83(core),
  valence states:
                energy  radius
    2s(2.00)   -23.961   0.688
    2p(4.00)    -9.029   0.598
    *s           3.251   0.688
    *p          18.182   0.598
    *d           0.000   0.619

  Using partial waves for O as LCAO basis

Reference energy: -33059.212459

Spin-polarized calculation.
Magnetic moment: 0.000000

Convergence criteria:
 Maximum [total energy] change in last 3 cyles: 0.0002 eV / electron
 Maximum integral of absolute [dens]ity change: 0.001 electrons / valence electron
 Maximum integral of absolute [eigenst]ate change: 0.0001 eV^2 / valence electron
 Maximum number of scf [iter]ations: 333
 (Square brackets indicate name in SCF output, whereas a 'c' in
 the SCF output indicates the quantity has converged.)

Symmetries present (total): 2

  ( 1  0  0)  ( 1  0  0)
  ( 0  1  0)  ( 0 -1  0)
  ( 0  0  1)  ( 0  0  1)

512 k-points: 8 x 8 x 8 Monkhorst-Pack grid + [1/16,1/16,1/16]
170 k-points in the irreducible part of the Brillouin zone
       k-points in crystal coordinates                weights
   0:     0.00000000    0.00000000    0.00000000          1/512
   1:     0.00000000    0.00000000    0.12500000          2/512
   2:     0.00000000    0.00000000    0.25000000          2/512
   3:     0.00000000    0.00000000    0.37500000          2/512
   4:     0.00000000    0.00000000    0.50000000          1/512
   5:     0.00000000    0.12500000    0.00000000          2/512
   6:     0.00000000    0.12500000    0.12500000          4/512
   7:     0.00000000    0.12500000    0.25000000          4/512
   8:     0.00000000    0.12500000    0.37500000          4/512
   9:     0.00000000    0.12500000    0.50000000          2/512
          ...
 169:     0.50000000    0.50000000    0.50000000          1/512

Wave functions: Plane wave expansion
  Cutoff energy: 500.000 eV
  Number of coefficients (min, max): 5136, 5188
  Pulay-stress correction: 0.000000 eV/Ang^3 (de/decut=0.000000)
  Using Numpy's FFT
  ScaLapack parameters: grid=1x1, blocksize=None
  Wavefunction extrapolation:
    Improved wavefunction reuse through dual PAW basis

Occupation numbers: Fermi-Dirac: width=0.1000 eV

Eigensolver
   Davidson(niter=2)

Densities:
  Coarse grid: 45*32*27 grid
  Fine grid: 90*64*54 grid
  Total Charge: 0.000000

Density mixing:
  Method: difference
  Backend: pulay
  Linear mixing parameter: 0.05
  Mixing with 5 old densities
  Damping of long wave oscillations: 50

Hamiltonian:
  XC and Coulomb potentials evaluated on a 90*64*54 grid
  Using the PBE Exchange-Correlation functional
  External potential:
    NoExternalPotential

XC parameters: PBE with 2 nearest neighbor stencil

Total number of cores used: 1

Number of atoms: 18
Number of atomic orbitals: 72
Number of bands in calculation: 63
Number of valence electrons: 98
Bands to converge: occupied

... initialized

Initializing position-dependent things.

Density initialized from atomic densities
Creating initial wave functions:
  63 bands from LCAO basis set

            O      O
              O      O
         O       O
            O     LO
               O      O
        LiO      O
            O       O
       O       O

Positions:
   0 Li     3.058603    4.208509   -2.010456    ( 0.0000,  0.0000,  0.0000)
   1 Li     0.000000    0.112054   -2.010456    ( 0.0000,  0.0000,  0.0000)
   2 O      4.548254    5.020506   -3.416546    ( 0.0000,  0.0000,  0.0000)
   3 O      4.484891   -0.179895   -0.611012    ( 0.0000,  0.0000,  0.0000)
   4 O      1.632316   -0.179895   -0.611012    ( 0.0000,  0.0000,  0.0000)
   5 O      1.568953    5.020506   -3.416546    ( 0.0000,  0.0000,  0.0000)
   6 O      3.058603   -0.529716   -3.399988    ( 0.0000,  0.0000,  0.0000)
   7 O      3.058603    5.752467   -0.623642    ( 0.0000,  0.0000,  0.0000)
   8 O      3.058603    2.417713   -0.576359    ( 0.0000,  0.0000,  0.0000)
   9 O      3.058603    2.657022   -3.422713    ( 0.0000,  0.0000,  0.0000)
  10 O      1.489650    0.924051   -3.416546    ( 0.0000,  0.0000,  0.0000)
  11 O      1.426288    3.916560   -0.611012    ( 0.0000,  0.0000,  0.0000)
  12 O      4.690919    3.916560   -0.611012    ( 0.0000,  0.0000,  0.0000)
  13 O      4.627557    0.924051   -3.416546    ( 0.0000,  0.0000,  0.0000)
  14 O      0.000000    3.566739   -3.399988    ( 0.0000,  0.0000,  0.0000)
  15 O      0.000000    1.656011   -0.623642    ( 0.0000,  0.0000,  0.0000)
  16 O      0.000000    6.514168   -0.576359    ( 0.0000,  0.0000,  0.0000)
  17 O      0.000000   -1.439434   -3.422713    ( 0.0000,  0.0000,  0.0000)

Unit cell:
           periodic     x           y           z      points  spacing
  1. axis:    yes    0.000000    8.192911    0.000000    45     0.1461
  2. axis:    yes    6.117207    0.000000    0.000000    32     0.1912
  3. axis:    yes    0.000000   -3.019324   -4.057183    27     0.1503

  Lengths:   8.192911   6.117207   5.057376
  Angles:   90.000000 126.656336  90.000000

Effective grid spacing dv^(1/3) = 0.1736

     iter     time        total  log10-change:  magmom
                         energy  eigst   dens
iter:   1 10:00:52   -84.346949                  +0.0000
iter:   2 10:06:02   -83.941520  -1.55  -1.13    -0.0000
iter:   3 10:11:20   -83.003191  -2.04  -1.17    -0.0000
iter:   4 10:16:31   -82.235742  -1.89  -1.29    -0.0000
iter:   5 10:21:44   -82.228043  -2.09  -1.59    -0.0000
iter:   6 10:27:03   -82.212761  -3.29  -1.89    -0.0000
iter:   7 10:32:10   -82.203721  -3.59  -2.03    -0.0000
iter:   8 10:37:33   -82.194433c -4.20c -2.23    -0.0000
iter:   9 10:42:55   -82.191289c -3.59  -2.32    -0.0000
iter:  10 10:48:17   -82.191309c -5.05c -2.93    -0.0000
iter:  11 10:53:19   -82.191194c -5.65c -2.95    -0.0000
iter:  12 10:58:24   -82.191156c -5.94c -3.06c   -0.0000

Converged after 12 iterations.

Dipole moment: (0.000000, -10.539520, 1.625694) |e|*Ang

Total magnetic moment: (0.000000, 0.000000, -0.000000)
Local magnetic moments:
   0 Li ( 0.000000,  0.000000,  0.000000)
   1 Li ( 0.000000,  0.000000, -0.000000)
   2 O  ( 0.000000,  0.000000, -0.000000)
   3 O  ( 0.000000,  0.000000, -0.000000)
   4 O  ( 0.000000,  0.000000, -0.000000)
   5 O  ( 0.000000,  0.000000, -0.000000)
   6 O  ( 0.000000,  0.000000,  0.000000)
   7 O  ( 0.000000,  0.000000,  0.000000)
   8 O  ( 0.000000,  0.000000,  0.000000)
   9 O  ( 0.000000,  0.000000,  0.000000)
  10 O  ( 0.000000,  0.000000,  0.000000)
  11 O  ( 0.000000,  0.000000,  0.000000)
  12 O  ( 0.000000,  0.000000,  0.000000)
  13 O  ( 0.000000,  0.000000,  0.000000)
  14 O  ( 0.000000,  0.000000,  0.000000)
  15 O  ( 0.000000,  0.000000, -0.000000)
  16 O  ( 0.000000,  0.000000,  0.000000)
  17 O  ( 0.000000,  0.000000, -0.000000)

Energy contributions relative to reference atoms: (reference = -33059.212459)

Kinetic:        +61.090457
Potential:      -67.406575
External:        +0.000000
XC:             -76.619515
Entropy (-ST):   -0.195909
Local:           +0.842432
Free energy:    -82.289110
Extrapolated:   -82.191156

Spin contamination: 0.000000 electrons
Showing only first 2 kpts
                      Up                     Down
 Kpt  Band  Eigenvalues  Occupancy  Eigenvalues  Occupancy
  0    47      1.06028    0.99903      1.06028    0.99903
  0    48      1.38936    0.97447      1.38936    0.97447
  0    49      1.80680    0.37001      1.80680    0.37001
  0    50      1.97843    0.09548      1.97843    0.09548

  1    47      1.04621    0.99915      1.04621    0.99915
  1    48      1.38348    0.97590      1.38348    0.97590
  1    49      1.80246    0.38017      1.80246    0.38017
  1    50      1.97694    0.09678      1.97694    0.09678

Fermi level: 1.75358