User:   gabrielbirnbaum@Gabriels-MacBook-Pro.local
Date:   Sat Jul 16 17:14:31 2022
Arch:   x86_64
Pid:    64177
Python: 3.9.13
gpaw:   /Users/gabrielbirnbaum/PycharmProjects/nanolithia/venv/lib/python3.9/site-packages/gpaw
_gpaw:  /Users/gabrielbirnbaum/PycharmProjects/nanolithia/venv/lib/python3.9/site-packages/
        _gpaw.cpython-39-darwin.so
ase:    /Users/gabrielbirnbaum/PycharmProjects/nanolithia/venv/lib/python3.9/site-packages/ase (version 3.22.1)
numpy:  /Users/gabrielbirnbaum/PycharmProjects/nanolithia/venv/lib/python3.9/site-packages/numpy (version 1.23.0)
scipy:  /Users/gabrielbirnbaum/PycharmProjects/nanolithia/venv/lib/python3.9/site-packages/scipy (version 1.8.1)
units:  Angstrom and eV
cores: 1
OpenMP: False
OMP_NUM_THREADS: 1

Input parameters:
  kpts: [8 8 8]
  mode: {ecut: 300.0,
         name: pw}
  nbands: -10
  xc: PBE

System changes: positions, numbers, cell, pbc, initial_charges, initial_magmoms

Initialize ...

Li-setup:
  name: Lithium
  id: 830b4218f175192f93f959cfc0aad614
  Z: 3.0
  valence: 1
  core: 2
  charge: 0.0
  file: /Users/gabrielbirnbaum/dft_learning/DIR/gpaw-setups-0.9.20000/Li.PBE.gz
  compensation charges: gauss, rc=0.33, lmax=2
  cutoffs: 1.91(filt), 2.55(core),
  valence states:
                energy  radius
    2s(1.00)    -2.874   1.058
    2p(0.00)    -1.090   1.058
    *s          24.337   1.058

  Using partial waves for Li as LCAO basis

Reference energy: -202.787820

Spin-paired calculation

Convergence criteria:
 Maximum [total energy] change in last 3 cyles: 0.0005 eV / electron
 Maximum integral of absolute [dens]ity change: 0.0001 electrons / valence electron
 Maximum integral of absolute [eigenst]ate change: 4e-08 eV^2 / valence electron
 Maximum number of scf [iter]ations: 333
 (Square brackets indicate name in SCF output, whereas a 'c' in
 the SCF output indicates the quantity has converged.)

Symmetries present (total): 48

  ( 1  1  1)  ( 1  1  1)  ( 1  1  1)  ( 1  1  1)  ( 1  1  1)  ( 1  1  1)
  ( 0  0 -1)  ( 0  0 -1)  ( 0 -1  0)  ( 0 -1  0)  (-1  0  0)  (-1  0  0)
  ( 0 -1  0)  (-1  0  0)  ( 0  0 -1)  (-1  0  0)  ( 0  0 -1)  ( 0 -1  0)

[...]

  ( 0 -1  0)  ( 0 -1  0)  ( 0 -1  0)  ( 0 -1  0)  ( 0 -1  0)  ( 0 -1  0)
  ( 1  1  1)  ( 1  1  1)  ( 0  0 -1)  ( 0  0 -1)  (-1  0  0)  (-1  0  0)
  ( 0  0 -1)  (-1  0  0)  ( 1  1  1)  (-1  0  0)  ( 1  1  1)  ( 0  0 -1)

  (-1  0  0)  (-1  0  0)  (-1  0  0)  (-1  0  0)  (-1  0  0)  (-1  0  0)
  ( 1  1  1)  ( 1  1  1)  ( 0  0 -1)  ( 0  0 -1)  ( 0 -1  0)  ( 0 -1  0)
  ( 0  0 -1)  ( 0 -1  0)  ( 1  1  1)  ( 0 -1  0)  ( 1  1  1)  ( 0  0 -1)

  (-1 -1 -1)  (-1 -1 -1)  (-1 -1 -1)  (-1 -1 -1)  (-1 -1 -1)  (-1 -1 -1)
  ( 1  0  0)  ( 1  0  0)  ( 0  1  0)  ( 0  1  0)  ( 0  0  1)  ( 0  0  1)
  ( 0  1  0)  ( 0  0  1)  ( 1  0  0)  ( 0  0  1)  ( 1  0  0)  ( 0  1  0)

512 k-points: 8 x 8 x 8 Monkhorst-Pack grid
26 k-points in the irreducible part of the Brillouin zone
       k-points in crystal coordinates                weights
   0:     0.06250000    0.06250000   -0.06250000          6/512
   1:     0.18750000   -0.06250000   -0.06250000          8/512
   2:     0.18750000    0.06250000   -0.06250000         24/512
   3:     0.18750000    0.18750000   -0.18750000          6/512
   4:     0.31250000   -0.06250000   -0.06250000         24/512
   5:     0.31250000    0.06250000   -0.18750000         24/512
   6:     0.31250000    0.06250000   -0.06250000         24/512
   7:     0.31250000    0.18750000   -0.18750000         24/512
   8:     0.31250000    0.31250000   -0.31250000          6/512
   9:     0.31250000    0.31250000    0.18750000         12/512
          ...
  25:     0.43750000    0.43750000    0.43750000          8/512

Wave functions: Plane wave expansion
  Cutoff energy: 300.000 eV
  Number of coefficients (min, max): 229, 245
  Pulay-stress correction: 0.000000 eV/Ang^3 (de/decut=0.000000)
  Using Numpy's FFT
  ScaLapack parameters: grid=1x1, blocksize=None
  Wavefunction extrapolation:
    Improved wavefunction reuse through dual PAW basis

Occupation numbers: Fermi-Dirac: width=0.1000 eV

Eigensolver
   Davidson(niter=2)

Densities:
  Coarse grid: 12*12*12 grid
  Fine grid: 24*24*24 grid
  Total Charge: 0.000000

Density mixing:
  Method: separate
  Backend: pulay
  Linear mixing parameter: 0.05
  Mixing with 5 old densities
  Damping of long wave oscillations: 50

Hamiltonian:
  XC and Coulomb potentials evaluated on a 24*24*24 grid
  Using the PBE Exchange-Correlation functional
  External potential:
    NoExternalPotential

XC parameters: PBE with 2 nearest neighbor stencil

Total number of cores used: 1

Number of atoms: 1
Number of atomic orbitals: 4
Number of bands in calculation: 10
Number of valence electrons: 1
Bands to converge: occupied

... initialized

Initializing position-dependent things.

Density initialized from atomic densities
Creating initial wave functions:
  4 bands from LCAO basis set
  6 bands from random numbers

       Li

Positions:
   0 Li     0.000000    0.000000    0.000000    ( 0.0000,  0.0000,  0.0000)

Unit cell:
           periodic     x           y           z      points  spacing
  1. axis:    yes   -1.714213    1.714213    1.714213    12     0.2020
  2. axis:    yes    1.714213   -1.714213    1.714213    12     0.2020
  3. axis:    yes    1.714213    1.714213   -1.714213    12     0.2020

  Lengths:   2.969104   2.969104   2.969104
  Angles:  109.471221 109.471221 109.471221

Effective grid spacing dv^(1/3) = 0.2268

     iter     time        total  log10-change:
                         energy  eigst   dens
iter:   1 17:14:32    -1.930926
iter:   2 17:14:32    -1.929262  -2.46  -1.23
iter:   3 17:14:32    -1.916901  -3.05  -1.24
iter:   4 17:14:33    -1.916834  -6.12  -2.77
iter:   5 17:14:33    -1.916691c -4.10  -2.70
iter:   6 17:14:33    -1.916674c -7.19  -2.56
iter:   7 17:14:34    -1.916674c -8.04c -3.87
iter:   8 17:14:34    -1.916674c -9.10c -3.70
iter:   9 17:14:34    -1.916674c -10.95c -5.03c

Converged after 9 iterations.

Dipole moment: (-0.000000, 0.000000, 0.000000) |e|*Ang

Energy contributions relative to reference atoms: (reference = -202.787820)

Kinetic:         +1.932204
Potential:       -1.648561
External:        +0.000000
XC:              -2.188140
Entropy (-ST):   -0.008409
Local:           -0.007972
Free energy:     -1.920878
Extrapolated:    -1.916674

Showing only first 2 kpts
 Kpt  Band  Eigenvalues  Occupancy
  0     0     -3.07268    2.00000
  0     1     14.33965    0.00000

  1     0     -2.77541    2.00000
  1     1     13.06502    0.00000

Fermi level: 0.40269

No gap
                                                                                                                                                                                                                                                                                                                                                                                                                                                                                                                                                                                                                                                                                                                                                                                                                                                                                                                                                                                                                                                                                                                                                                                                                                                                                                                                                                                                                                                                                                                                                                                                                                                                                                                                                                                                                                                                                                                                                                                                                                                                                                                                                                                                                                                                                                                                                                                                                                                                                                                                                                                                                                                                                                                                                                                                                                                                                                                                                                                                                                                                                                                                                                                                                                                                                                                                                                                                                                                                                                                                                                                                                                                                                                                                                                                                                                                                                                                                                                                                                                                                                                                                                                                                                                                                                                                                                                                                                                                                                                                                                                                                                                                                                                                                                                                                                                                                                                                                                                                                                                                                                                                                                                                                                                                                                                                                                                                                                                                                                                                                                                                                                                                                                                                                                                                                                                                                                                                                                                                                                                                                                                                                                                                                                                                                                                                                                                                                                                                                                                                                                                                                                                                                                                                                                                                                                                                                                                                                                                                                                                                                                                                                                                                                                                                                                                                                                                                                                                                                                                                                                                                                                                                                                                                                                                                                                                                                                                                                                                                                                                                                                                                                                                                                                                                                                                                                                                                                                                                                                                                                                                                                                                                                                                                                                                                                                                                                                                                                                                                                                                                                                                                                                                                                                                                                                                                                                                                                                                                                                                                                                                                                                                                                                                                                                                                                                                                                                                                                                                                                                                                                                                                                                                                                                                                                                                                                                                                                                                                                                                                                                                                                                                                                                                                                                                                                                                                                                                                                                                                                                                                                                                                                                                                                                                                                                                                                                                                                                                                                                                                                                                                                                                                                                                                                                                                                                                                                                                                                                                                                                                                                                                                                                                                                                                                                                                                                                                                                                                                                                                                                                                                                                                                                                                                                                                                                                                                                                                                                                                                                                                                                                                                                                                                                                                                                                                                                                                                                                                                                                                                                                                                                                                                                                                                                                                                                                                                                                                                                                                                                                                                                                                                                                                                                                                                                                                                                                                                                                                                                                                                                                                                                                                                                                                                                                                                                                                                                                                                                                                                                                                                                                                                                                                           Stress tensor:
    -0.000004     0.000000     0.000000
     0.000000    -0.000004     0.000000
     0.000000     0.000000    -0.000004
Timing:                              incl.     excl.
Hamiltonian:                         0.076     0.001   0.0% |
 Atomic:                             0.057     0.001   0.0% |
  XC Correction:                     0.056     0.056   0.1% |
 Calculate atomic Hamiltonians:      0.001     0.001   0.0% |
 Communicate:                        0.000     0.000   0.0% |
 Initialize Hamiltonian:             0.000     0.000   0.0% |
 Poisson:                            0.000     0.000   0.0% |
 XC 3D grid:                         0.017     0.017   0.0% |
LCAO initialization:                 0.406     0.027   0.1% |
 LCAO eigensolver:                   0.071     0.001   0.0% |
  Calculate projections:             0.001     0.001   0.0% |
  DenseAtomicCorrection:             0.003     0.003   0.0% |
  Distribute overlap matrix:         0.001     0.001   0.0% |
  Orbital Layouts:                   0.005     0.005   0.0% |
  Potential matrix:                  0.052     0.052   0.1% |
  Sum over cells:                    0.009     0.009   0.0% |
 LCAO to grid:                       0.111     0.111   0.2% |
 Set positions (LCAO WFS):           0.197     0.026   0.1% |
  Basic WFS set positions:           0.003     0.003   0.0% |
  Basis functions set positions:     0.000     0.000   0.0% |
  P tci:                             0.040     0.040   0.1% |
  ST tci:                            0.098     0.098   0.2% |
  mktci:                             0.029     0.029   0.1% |
PWDescriptor:                        0.005     0.005   0.0% |
SCF-cycle:                           8.278     0.098   0.2% |
 Davidson:                           7.021     0.653   1.3% ||
  Apply H:                           1.350     1.304   2.5% ||
   HMM T:                            0.046     0.046   0.1% |
  Subspace diag:                     1.559     0.029   0.1% |
   calc_h_matrix:                    1.427     0.079   0.2% |
    Apply H:                         1.348     1.302   2.5% ||
     HMM T:                          0.046     0.046   0.1% |
   diagonalize:                      0.066     0.066   0.1% |
   rotate_psi:                       0.037     0.037   0.1% |
  calc. matrices:                    3.185     0.504   1.0% |
   Apply H:                          2.680     2.590   5.0% |-|
    HMM T:                           0.090     0.090   0.2% |
  diagonalize:                       0.224     0.224   0.4% |
  rotate_psi:                        0.050     0.050   0.1% |
 Density:                            0.641     0.000   0.0% |
  Atomic density matrices:           0.015     0.015   0.0% |
  Mix:                               0.030     0.030   0.1% |
  Multipole moments:                 0.001     0.001   0.0% |
  Pseudo density:                    0.594     0.550   1.1% |
   Symmetrize density:               0.045     0.045   0.1% |
 Hamiltonian:                        0.500     0.006   0.0% |
  Atomic:                            0.372     0.006   0.0% |
   XC Correction:                    0.365     0.365   0.7% |
  Calculate atomic Hamiltonians:     0.007     0.007   0.0% |
  Communicate:                       0.000     0.000   0.0% |
  Poisson:                           0.001     0.001   0.0% |
  XC 3D grid:                        0.113     0.113   0.2% |
 Orthonormalize:                     0.019     0.003   0.0% |
  calc_s_matrix:                     0.006     0.006   0.0% |
  inverse-cholesky:                  0.003     0.003   0.0% |
  projections:                       0.005     0.005   0.0% |
  rotate_psi_s:                      0.002     0.002   0.0% |
Set symmetry:                        0.094     0.094   0.2% |
Stress:                              0.368     0.000   0.0% |
 Stress tensor:                      0.368     0.368   0.7% |
Other:                              42.354    42.354  82.1% |--------------------------------|
Total:                                        51.581 100.0%