User:   gabrielbirnbaum@Gabriels-MacBook-Pro.local
Date:   Sun Jul 10 16:16:22 2022
Arch:   x86_64
Pid:    75210
Python: 3.9.13
gpaw:   /Users/gabrielbirnbaum/PycharmProjects/nanolithia/venv/lib/python3.9/site-packages/gpaw
_gpaw:  /Users/gabrielbirnbaum/PycharmProjects/nanolithia/venv/lib/python3.9/site-packages/
        _gpaw.cpython-39-darwin.so
ase:    /Users/gabrielbirnbaum/PycharmProjects/nanolithia/venv/lib/python3.9/site-packages/ase (version 3.22.1)
numpy:  /Users/gabrielbirnbaum/PycharmProjects/nanolithia/venv/lib/python3.9/site-packages/numpy (version 1.23.0)
scipy:  /Users/gabrielbirnbaum/PycharmProjects/nanolithia/venv/lib/python3.9/site-packages/scipy (version 1.8.1)
units:  Angstrom and eV
cores: 1
OpenMP: False
OMP_NUM_THREADS: 1

Input parameters:
  kpts: [8 8 8]
  mode: {ecut: 500.0,
         name: pw}
  nbands: -10
  xc: PBE

System changes: positions, numbers, cell, pbc, initial_charges, initial_magmoms

Initialize ...

Li-setup:
  name: Lithium
  id: 830b4218f175192f93f959cfc0aad614
  Z: 3.0
  valence: 1
  core: 2
  charge: 0.0
  file: /Users/gabrielbirnbaum/dft_learning/DIR/gpaw-setups-0.9.20000/Li.PBE.gz
  compensation charges: gauss, rc=0.33, lmax=2
  cutoffs: 1.91(filt), 2.55(core),
  valence states:
                energy  radius
    2s(1.00)    -2.874   1.058
    2p(0.00)    -1.090   1.058
    *s          24.337   1.058

  Using partial waves for Li as LCAO basis

O-setup:
  name: Oxygen
  id: 32ecd46bf208036f09c70b0ec9a88b78
  Z: 8.0
  valence: 6
  core: 2
  charge: 0.0
  file: /Users/gabrielbirnbaum/dft_learning/DIR/gpaw-setups-0.9.20000/O.PBE.gz
  compensation charges: gauss, rc=0.21, lmax=2
  cutoffs: 1.17(filt), 0.83(core),
  valence states:
                energy  radius
    2s(2.00)   -23.961   0.688
    2p(4.00)    -9.029   0.598
    *s           3.251   0.688
    *p          18.182   0.598
    *d           0.000   0.619

  Using partial waves for O as LCAO basis

Reference energy: -17137.969690

Spin-paired calculation

Convergence criteria:
 Maximum [total energy] change in last 3 cyles: 0.0005 eV / electron
 Maximum integral of absolute [dens]ity change: 0.0001 electrons / valence electron
 Maximum integral of absolute [eigenst]ate change: 4e-08 eV^2 / valence electron
 Maximum number of scf [iter]ations: 333
 (Square brackets indicate name in SCF output, whereas a 'c' in
 the SCF output indicates the quantity has converged.)

Symmetries present (total): 4

  ( 1  0  0)  ( 1  0  0)  (-1  0  0)  (-1  0  0)
  ( 0  1  0)  ( 0 -1  0)  ( 0  1  0)  ( 0 -1  0)
  ( 0  0  1)  ( 0  0  1)  ( 0  0 -1)  ( 0  0 -1)

512 k-points: 8 x 8 x 8 Monkhorst-Pack grid
128 k-points in the irreducible part of the Brillouin zone
       k-points in crystal coordinates                weights
   0:     0.06250000    0.06250000   -0.43750000          4/512
   1:     0.06250000    0.06250000   -0.31250000          4/512
   2:     0.06250000    0.06250000   -0.18750000          4/512
   3:     0.06250000    0.06250000   -0.06250000          4/512
   4:     0.06250000    0.06250000    0.06250000          4/512
   5:     0.06250000    0.06250000    0.18750000          4/512
   6:     0.06250000    0.06250000    0.31250000          4/512
   7:     0.06250000    0.06250000    0.43750000          4/512
   8:     0.06250000    0.18750000   -0.43750000          4/512
   9:     0.06250000    0.18750000   -0.31250000          4/512
          ...
 127:     0.43750000    0.43750000    0.43750000          4/512

Wave functions: Plane wave expansion
  Cutoff energy: 500.000 eV
  Number of coefficients (min, max): 2773, 2813
  Pulay-stress correction: 0.000000 eV/Ang^3 (de/decut=0.000000)
  Using Numpy's FFT
  ScaLapack parameters: grid=1x1, blocksize=None
  Wavefunction extrapolation:
    Improved wavefunction reuse through dual PAW basis

Occupation numbers: Fermi-Dirac: width=0.1000 eV

Eigensolver
   Davidson(niter=2)

Densities:
  Coarse grid: 32*32*24 grid
  Fine grid: 64*64*48 grid
  Total Charge: 0.000000

Density mixing:
  Method: separate
  Backend: pulay
  Linear mixing parameter: 0.05
  Mixing with 5 old densities
  Damping of long wave oscillations: 50

Hamiltonian:
  XC and Coulomb potentials evaluated on a 64*64*48 grid
  Using the PBE Exchange-Correlation functional
  External potential:
    NoExternalPotential

XC parameters: PBE with 2 nearest neighbor stencil

Total number of cores used: 1

Number of atoms: 12
Number of atomic orbitals: 48
Number of bands in calculation: 36
Number of valence electrons: 52
Bands to converge: occupied

... initialized

Initializing position-dependent things.

Density initialized from atomic densities
Creating initial wave functions:
  36 bands from LCAO basis set

                  O
              O     O
         O O       O
             Li     Li

         O Li     Li

               O

Positions:
   0 Li     4.396180   -1.361495   -1.560151    ( 0.0000,  0.0000,  0.0000)
   1 Li     1.478356   -1.361495   -1.560151    ( 0.0000,  0.0000,  0.0000)
   2 Li     1.458912    1.638313   -1.560151    ( 0.0000,  0.0000,  0.0000)
   3 Li     4.415624    1.638313   -1.560151    ( 0.0000,  0.0000,  0.0000)
   4 O      4.641765    0.000000    0.000000    ( 0.0000,  0.0000,  0.0000)
   5 O      1.232771    0.000000    0.000000    ( 0.0000,  0.0000,  0.0000)
   6 O      2.937268   -0.958632   -3.096429    ( 0.0000,  0.0000,  0.0000)
   7 O      2.937268    4.235257   -0.023873    ( 0.0000,  0.0000,  0.0000)
   8 O      1.704497    2.999807    0.000000    ( 0.0000,  0.0000,  0.0000)
   9 O      4.170039    2.999807    0.000000    ( 0.0000,  0.0000,  0.0000)
  10 O      0.000000    2.041175   -3.096429    ( 0.0000,  0.0000,  0.0000)
  11 O      0.000000    1.235450   -0.023873    ( 0.0000,  0.0000,  0.0000)

Unit cell:
           periodic     x           y           z      points  spacing
  1. axis:    yes    0.000000    5.999614    0.000000    32     0.1413
  2. axis:    yes    5.874536    0.000000    0.000000    32     0.1836
  3. axis:    yes    0.000000   -2.722989   -3.120302    24     0.1300

  Lengths:   5.999614   5.874536   4.141371
  Angles:   90.000000 131.110176  90.000000

Effective grid spacing dv^(1/3) = 0.1648

     iter     time        total  log10-change:
                         energy  eigst   dens
iter:   1 16:24:34   -50.944937
iter:   2 16:25:17   -50.828443  -1.86  -1.07
iter:   3 16:26:00   -49.850394  -1.64  -1.10
iter:   4 16:26:43   -49.863464  -2.22  -1.57
iter:   5 16:27:27   -49.801800  -2.57  -1.87
iter:   6 16:28:10   -49.802828  -3.47  -2.28
iter:   7 16:28:54   -49.799770c -4.46  -2.49
iter:   8 16:29:37   -49.800328c -4.73  -2.71
iter:   9 16:30:22   -49.800997c -4.25  -2.78
iter:  10 16:31:06   -49.800898c -5.68  -3.21
iter:  11 16:31:50   -49.800891c -7.16  -3.35
iter:  12 16:32:34   -49.800893c -5.64  -3.37
iter:  13 16:33:18   -49.800894c -6.99  -4.00c
iter:  14 16:34:03   -49.800897c -7.20  -4.07c
iter:  15 16:34:47   -49.800897c -7.81c -4.13c

Converged after 15 iterations.

Dipole moment: (0.000000, -0.000000, -0.000000) |e|*Ang

Energy contributions relative to reference atoms: (reference = -17137.969690)

Kinetic:        +40.437901
Potential:      -40.307182
External:        +0.000000
XC:             -50.333893
Entropy (-ST):   -0.086020
Local:           +0.445287
Free energy:    -49.843907
Extrapolated:   -49.800897

Showing only first 2 kpts
 Kpt  Band  Eigenvalues  Occupancy
  0    24      1.75846    1.99997
  0    25      1.88946    1.99991
  0    26      3.08462    0.24421
  0    27      3.27384    0.04107

  1    24      1.72620    1.99998
  1    25      2.09009    1.99931
  1    26      3.12317    0.17283
  1    27      3.27950    0.03885

Fermi level: 2.88735

Gap: 0.023 eV
Transition (v -> c):
  (s=0, k=103, n=25, [0.44, 0.06, 0.44]) -> (s=0, k=27, n=26, [0.06, 0.44, -0.06])
Timing:                              incl.     excl.
Hamiltonian:                         0.264     0.001   0.0% |
 Atomic:                             0.200     0.001   0.0% |
  XC Correction:                     0.199     0.199   0.0% |
 Calculate atomic Hamiltonians:      0.015     0.015   0.0% |
 Communicate:                        0.000     0.000   0.0% |
 Initialize Hamiltonian:             0.000     0.000   0.0% |
 Poisson:                            0.000     0.000   0.0% |
 XC 3D grid:                         0.048     0.048   0.0% |
LCAO initialization:                42.135     0.090   0.0% |
 LCAO eigensolver:                   1.400     0.005   0.0% |
  Calculate projections:             0.020     0.020   0.0% |
  DenseAtomicCorrection:             0.045     0.045   0.0% |
  Distribute overlap matrix:         0.004     0.004   0.0% |
  Orbital Layouts:                   0.106     0.106   0.0% |
  Potential matrix:                  1.047     1.047   0.1% |
  Sum over cells:                    0.176     0.176   0.0% |
 LCAO to grid:                      36.687    36.687   3.3% ||
 Set positions (LCAO WFS):           3.958     0.457   0.0% |
  Basic WFS set positions:           0.001     0.001   0.0% |
  Basis functions set positions:     0.000     0.000   0.0% |
  P tci:                             1.884     1.884   0.2% |
  ST tci:                            1.579     1.579   0.1% |
  mktci:                             0.037     0.037   0.0% |
PWDescriptor:                        0.079     0.079   0.0% |
SCF-cycle:                         652.684     0.302   0.0% |
 Davidson:                         590.748    39.537   3.6% ||
  Apply H:                         134.290   133.201  12.1% |----|
   HMM T:                            1.089     1.089   0.1% |
  Subspace diag:                   136.051     0.138   0.0% |
   calc_h_matrix:                  132.183     2.380   0.2% |
    Apply H:                       129.803   128.792  11.7% |----|
     HMM T:                          1.011     1.011   0.1% |
   diagonalize:                      0.728     0.728   0.1% |
   rotate_psi:                       3.002     3.002   0.3% |
  calc. matrices:                  269.415    13.332   1.2% |
   Apply H:                        256.083   253.876  23.0% |--------|
    HMM T:                           2.207     2.207   0.2% |
  diagonalize:                       5.699     5.699   0.5% |
  rotate_psi:                        5.756     5.756   0.5% |
 Density:                           57.266     0.000   0.0% |
  Atomic density matrices:           0.297     0.297   0.0% |
  Mix:                               0.413     0.413   0.0% |
  Multipole moments:                 0.002     0.002   0.0% |
  Pseudo density:                   56.554    56.525   5.1% |-|
   Symmetrize density:               0.029     0.029   0.0% |
 Hamiltonian:                        3.598     0.021   0.0% |
  Atomic:                            2.627     0.016   0.0% |
   XC Correction:                    2.612     2.612   0.2% |
  Calculate atomic Hamiltonians:     0.270     0.270   0.0% |
  Communicate:                       0.000     0.000   0.0% |
  Poisson:                           0.006     0.006   0.0% |
  XC 3D grid:                        0.674     0.674   0.1% |
 Orthonormalize:                     0.771     0.009   0.0% |
  calc_s_matrix:                     0.102     0.102   0.0% |
  inverse-cholesky:                  0.033     0.033   0.0% |
  projections:                       0.524     0.524   0.0% |
  rotate_psi_s:                      0.103     0.103   0.0% |
Set symmetry:                        0.012     0.012   0.0% |
Other:                             409.851   409.851  37.1% |--------------|
Total:                                      1105.026 100.0%